LAMMPS (27 Jun 2024)
OMP_NUM_THREADS environment is not set. Defaulting to 1 thread. (src/comm.cpp:98)
  using 1 OpenMP thread(s) per MPI task
Loaded 1 plugins from C:\Users\nashi\AppData\Local\LAMMPS 64-bit 27Jun2024-MSMPI\plugins
boundary p p f
units real
atom_style full
bond_style harmonic
angle_style harmonic
pair_style lj/cut/tip4p/long 1 2 1 1 0.1546 12.0
kspace_style pppm/tip4p 1.0e-4
kspace_modify slab 3.0

read_data ../equilibration/system.data
Reading data file ...
  orthogonal box = (-12.12 -12.12 -20.2) to (12.12 12.12 20.2)
  1 by 2 by 2 MPI processor grid
  reading atoms ...
  1665 atoms
  reading velocities ...
  1665 velocities
  scanning bonds ...
  2 = max bonds/atom
  scanning angles ...
  1 = max angles/atom
  orthogonal box = (-12.12 -12.12 -20.2) to (12.12 12.12 20.2)
  1 by 2 by 2 MPI processor grid
  reading bonds ...
  802 bonds
  reading angles ...
  401 angles
Finding 1-2 1-3 1-4 neighbors ...
  special bond factors lj:    0        0        0       
  special bond factors coul:  0        0        0       
     2 = max # of 1-2 neighbors
     1 = max # of 1-3 neighbors
     1 = max # of 1-4 neighbors
     2 = max # of special neighbors
  special bonds CPU = 0.000 seconds
  read_data CPU = 0.035 seconds

include ../PARM.lammps
mass 1 15.9994 # water
mass 2 1.008 # water
mass 3 28.990 # ion
mass 4 35.453 # ion
mass 5 26.9815 # wall

pair_coeff 1 1 0.185199 3.1589 # water
pair_coeff 2 2 0.0 1.0 # water
pair_coeff 3 3 0.04690 2.4299 # ion
pair_coeff 4 4 0.1500 4.04470 # ion
pair_coeff 5 5 11.697 2.574 # wall
pair_coeff 1 5 0.4 2.86645 # water-wall

bond_coeff 1 0 0.9572 # water

angle_coeff 1 0 104.52 # water
include ../GROUP.lammps
group H2O type 1 2
1203 atoms in group H2O
group Na type 3
15 atoms in group Na
group Cl type 4
15 atoms in group Cl
group ions union Na Cl
30 atoms in group ions
group fluid union H2O ions
1233 atoms in group fluid

group wall type 5
432 atoms in group wall
region rtop block INF INF INF INF 0 INF
region rbot block INF INF INF INF INF 0
group top region rtop
842 atoms in group top
group bot region rbot
823 atoms in group bot
group walltop intersect wall top
216 atoms in group walltop
group wallbot intersect wall bot
216 atoms in group wallbot

fix mynve all nve
compute Tfluid fluid temp/partial 0 1 1
fix myber1 fluid temp/berendsen 300 300 100
fix_modify myber1 temp Tfluid
compute Twall wall temp/partial 0 1 1
fix myber2 wall temp/berendsen 300 300 100
fix_modify myber2 temp Twall
fix myshk H2O shake 1.0e-4 200 0 b 1 a 1
Finding SHAKE clusters ...
       0 = # of size 2 clusters
       0 = # of size 3 clusters
       0 = # of size 4 clusters
     401 = # of frozen angles
  find clusters CPU = 0.000 seconds
fix myrct all recenter NULL NULL 0

fix mysf1 walltop setforce 0 NULL NULL
fix mysf2 wallbot setforce 0 NULL NULL
velocity wallbot set -2e-4 NULL NULL
velocity walltop set 2e-4 NULL NULL

dump mydmp all atom 500 dump.lammpstrj
thermo 50
thermo_modify temp Tfluid
WARNING: Temperature for thermo pressure is not for group all (src/thermo.cpp:533)

compute cc1 H2O chunk/atom bin/1d z 0.0 1.0
compute cc2 wall chunk/atom bin/1d z 0.0 1.0
compute cc3 ions chunk/atom bin/1d z 0.0 1.0

fix myac1 H2O ave/chunk 10 15000 200000 cc1 density/mass vx file water.profile_1A.dat
fix myac2 wall ave/chunk 10 15000 200000 cc2 density/mass vx file wall.profile_1A.dat
fix myac3 ions ave/chunk 10 15000 200000 cc3 density/mass vx file ions.profile_1A.dat

fix myat1 all ave/time 10 100 1000 f_mysf1[1] f_mysf2[1] file forces.dat

timestep 1.0
run 200000

CITE-CITE-CITE-CITE-CITE-CITE-CITE-CITE-CITE-CITE-CITE-CITE-CITE

Your simulation uses code contributions which should be cited:

- Type Label Framework: https://doi.org/10.1021/acs.jpcb.3c08419

@Article{Gissinger24,
 author = {Jacob R. Gissinger, Ilia Nikiforov, Yaser Afshar, Brendon Waters, Moon-ki Choi, Daniel S. Karls, Alexander Stukowski, Wonpil Im, Hendrik Heinz, Axel Kohlmeyer, and Ellad B. Tadmor},
 title = {Type Label Framework for Bonded Force Fields in LAMMPS},
 journal = {J. Phys. Chem. B},
 year =    2024,
 volume =  128,
 number =  13,
 pages =   {3282â€“-3297}
}

CITE-CITE-CITE-CITE-CITE-CITE-CITE-CITE-CITE-CITE-CITE-CITE-CITE

PPPM initialization ...
  extracting TIP4P info from pair style
  using 12-bit tables for long-range coulomb (src/kspace.cpp:342)
  G vector (1/distance) = 0.22477066
  grid = 12 12 40
  stencil order = 5
  estimated absolute RMS force accuracy = 0.023142321
  estimated relative force accuracy = 6.9692414e-05
  using double precision FFTW3
  3d grid and FFT values/proc = 8892 2376
WARNING: Communication cutoff 0 is shorter than a bond length based estimate of 3.4358. This may lead to errors. (src/comm.cpp:730)
WARNING: Increasing communication cutoff to 15.1118 for TIP4P pair style (src/KSPACE/pair_lj_cut_tip4p_long.cpp:478)
Generated 9 of 10 mixed pair_coeff terms from geometric mixing rule
Neighbor list info ...
  update: every = 1 steps, delay = 0 steps, check = yes
  max neighbors/atom: 2000, page size: 100000
  master list distance cutoff = 14.3092
  ghost atom cutoff = 15.1118
  binsize = 7.1546, bins = 4 4 6
  1 neighbor lists, perpetual/occasional/extra = 1 0 0
  (1) pair lj/cut/tip4p/long, perpetual
      attributes: half, newton on
      pair build: half/bin/newton
      stencil: half/bin/3d
      bin: standard
Per MPI rank memory allocation (min/avg/max) = 10.43 | 10.45 | 10.47 Mbytes
   Step          Temp          E_pair         E_mol          TotEng         Press     
         0   318.63838     -38091.581      0             -37565.391     -15562.092    
        50   304.69824     -38059.683      0             -37556.513     -16361.741    
       100   324.69746     -38070.695      0             -37534.5       -15701.484    
       150   305.36046     -38032.893      0             -37528.631     -15705.201    
       200   324.67197     -38087.303      0             -37551.149     -15824.426    
       250   315.93088     -38102.628      0             -37580.909     -16135.886    
       300   299.1894      -38101.208      0             -37607.136     -15646.683    
       350   301.15869     -38076.538      0             -37579.214     -14974.901    
       400   310.63661     -38106.397      0             -37593.422     -16312.106    
       450   304.71897     -38087.519      0             -37584.316     -15099.904    
       500   306.46492     -38118.159      0             -37612.072     -16723.988    
       550   319.61222     -38147.467      0             -37619.67      -15614.83     
       600   288.23385     -38085.68       0             -37609.699     -16343.393    
       650   297.7623      -38091.795      0             -37600.08      -15801.073    
       700   286.45378     -38086.124      0             -37613.083     -16329.117    
       750   298.36496     -38098.056      0             -37605.346     -16583.889    
       800   304.99348     -38115.878      0             -37612.221     -17393.152    
       850   305.43138     -38109.337      0             -37604.957     -15452.585    
       900   293.50669     -38119.083      0             -37634.395     -18056.889    
       950   306.23121     -38111.376      0             -37605.675     -15800.136    
      1000   309.05449     -38147.184      0             -37636.821     -18281.973    
      1050   310.28176     -38136.135      0             -37623.745     -15759.877    
      1100   315.47308     -38129.807      0             -37608.845     -17575.845    
      1150   309.9874      -38115.331      0             -37603.428     -15733.312    
      1200   299.79387     -38121.384      0             -37626.314     -16927.532    
      1250   290.64832     -38074.042      0             -37594.074     -14698.267    
      1300   308.95666     -38113.91       0             -37603.709     -16903.878    
      1350   290.76397     -38110.408      0             -37630.249     -15598.084    
      1400   295.75073     -38087.989      0             -37599.596     -16659.906    
      1450   286.07154     -38070.836      0             -37598.427     -15293.59     
      1500   298.85782     -38115.796      0             -37622.271     -16354.556    
      1550   309.68655     -38149.624      0             -37638.218     -15921.11     
      1600   294.8491      -38119.518      0             -37632.613     -16071.171    
      1650   300.14384     -38125.232      0             -37629.584     -15735.958    
      1700   291.42969     -38115.044      0             -37633.786     -15530.286    
      1750   291.78829     -38105.348      0             -37623.498     -16245.452    
      1800   300.45146     -38113.966      0             -37617.81      -16126.237    
      1850   296.16329     -38112.626      0             -37623.551     -17065.278    
      1900   298.73813     -38117.14       0             -37623.813     -15734.666    
      1950   299.83844     -38116.858      0             -37621.715     -17041.116    
      2000   295.80934     -38093.047      0             -37604.557     -15971.221    
      2050   300.49261     -38127.635      0             -37631.411     -16377.609    
      2100   294.65215     -38137.159      0             -37650.579     -15585.405    
      2150   288.76544     -38097.763      0             -37620.905     -16683.772    
      2200   297.43811     -38099.521      0             -37608.341     -15454.36     
      2250   296.98518     -38083.033      0             -37592.601     -16408.032    
      2300   301.66874     -38112.506      0             -37614.34      -15827.499    
      2350   300.16417     -38102.227      0             -37606.545     -16088.013    
      2400   300.76227     -38124.047      0             -37627.378     -15787.207    
      2450   297.90464     -38116.524      0             -37624.574     -16647.166    
      2500   313.83597     -38113.319      0             -37595.06      -15769.968    
      2550   320.37632     -38176.742      0             -37647.683     -16577.953    
      2600   303.31304     -38153.859      0             -37652.978     -16834.766    
      2650   303.56431     -38175.281      0             -37673.984     -15781.028    
      2700   302.9062      -38127.191      0             -37626.981     -16104.898    
      2750   315.29168     -38179.701      0             -37659.038     -16220.62     
      2800   306.32726     -38161.609      0             -37655.75      -17256.797    
      2850   301.18746     -38153.405      0             -37656.033     -15704.19     
      2900   300.62759     -38153.654      0             -37657.207     -17360.123    
      2950   298.52437     -38136.928      0             -37643.955     -15256.978    
      3000   300.98311     -38150.676      0             -37653.642     -17479.722    
      3050   289.9784      -38156.726      0             -37677.865     -16191.261    
      3100   294.53301     -38147.492      0             -37661.11      -17771.312    
      3150   298.70584     -38157.937      0             -37664.663     -15247.955    
      3200   291.95244     -38131.544      0             -37649.423     -16906.122    
      3250   304.68263     -38172.348      0             -37669.204     -15111.033    
      3300   311.56177     -38194.588      0             -37680.084     -17497.872    
      3350   296.89907     -38146.755      0             -37656.465     -14731.125    
      3400   291.47938     -38164.169      0             -37682.829     -16887.115    
      3450   300.75811     -38168.266      0             -37671.603     -16163.877    
      3500   290.30705     -38156.299      0             -37676.895     -16102.943    
      3550   299.298       -38185.236      0             -37690.984     -16209.337    
      3600   303.94332     -38161.506      0             -37659.583     -15873.026    
      3650   308.92058     -38182.38       0             -37672.238     -16015.886    
      3700   300.93122     -38183.874      0             -37686.926     -15672.003    
      3750   297.18136     -38188.571      0             -37697.815     -16530.569    
      3800   302.38226     -38172.048      0             -37672.704     -14950.833    
      3850   300.20339     -38168.35       0             -37672.603     -16884.583    
      3900   296.65075     -38162.06       0             -37672.18      -14277.629    
      3950   310.31073     -38194.991      0             -37682.553     -17516.53     
      4000   304.42703     -38189.279      0             -37686.558     -13856.977    
      4050   304.27972     -38179.225      0             -37676.747     -17281.273    
      4100   302.64477     -38168.525      0             -37668.746     -14725.658    
      4150   314.36197     -38193.243      0             -37674.115     -17504.09     
      4200   290.47056     -38165.16       0             -37685.486     -13927.369    
      4250   291.84173     -38160.899      0             -37678.961     -16374.002    
      4300   295.70214     -38182.463      0             -37694.149     -13951.947    
      4350   294.119       -38162.05       0             -37676.351     -16578.967    
      4400   309.01776     -38184.995      0             -37674.692     -14442.153    
      4450   304.92768     -38203.836      0             -37700.288     -17034.089    
      4500   293.33725     -38188.656      0             -37704.249     -14399.301    
      4550   307.38437     -38209.692      0             -37702.087     -16708.78     
      4600   295.99318     -38193.89       0             -37705.096     -14359.143    
      4650   291.81097     -38159.555      0             -37677.667     -16842.431    
      4700   296.33205     -38167.218      0             -37677.864     -14754.721    
      4750   309.71356     -38210.301      0             -37698.85      -16273.066    
      4800   296.93138     -38196.12       0             -37705.777     -15154.693    
      4850   297.28784     -38191.559      0             -37700.627     -16878.691    
      4900   303.74176     -38197.027      0             -37695.438     -16611.856    
      4950   292.54109     -38173.227      0             -37690.133     -17205.203    
      5000   294.50292     -38167.636      0             -37681.303     -16771.412    
      5050   289.35557     -38135.626      0             -37657.793     -17103.341    
      5100   301.52087     -38148.72       0             -37650.798     -16401.705    
      5150   314.90874     -38184.521      0             -37664.491     -17766.616    
      5200   294.56222     -38172.698      0             -37686.267     -16720.24     
      5250   298.32941     -38192.845      0             -37700.193     -17028.575    
      5300   310.33843     -38187.798      0             -37675.315     -16933.288    
      5350   296.34377     -38153.146      0             -37663.773     -16158.123    
      5400   302.23333     -38179.433      0             -37680.334     -17482.461    
      5450   299.35894     -38171.125      0             -37676.773     -15908.052    
      5500   294.89622     -38160.919      0             -37673.937     -17933.89     
      5550   299.84265     -38174.808      0             -37679.657     -15931.427    
      5600   295.36438     -38154.756      0             -37667         -17391.744    
      5650   296.59218     -38149.942      0             -37660.159     -16359.679    
      5700   296.42445     -38152.997      0             -37663.491     -17475.525    
      5750   301.971       -38161.001      0             -37662.336     -15873.536    
      5800   298.94011     -38139.489      0             -37645.829     -16927.017    
      5850   303.99091     -38165.037      0             -37663.036     -17039.205    
      5900   301.09582     -38175.065      0             -37677.845     -16920.461    
      5950   300.8143      -38169.242      0             -37672.487     -16530.093    
      6000   314.33805     -38183.008      0             -37663.92      -16782.968    
      6050   302.92157     -38177.351      0             -37677.116     -17550.004    
      6100   292.4632      -38144.911      0             -37661.946     -16023.411    
      6150   296.70921     -38166.562      0             -37676.586     -17492.929    
      6200   295.85239     -38167.726      0             -37679.164     -15706.29     
      6250   292.01516     -38152.286      0             -37670.061     -17516.673    
      6300   290.93873     -38130.289      0             -37649.841     -15095.71     
      6350   307.02518     -38171.069      0             -37664.058     -17086.372    
      6400   304.37439     -38144.261      0             -37641.627     -13850.184    
      6450   296.7394      -38146.623      0             -37656.596     -17114.878    
      6500   297.81083     -38137.257      0             -37645.461     -14535.88     
      6550   310.32298     -38185.197      0             -37672.74      -16647.287    
      6600   294.55645     -38164.924      0             -37678.503     -15116.905    
      6650   310.24086     -38175.496      0             -37663.174     -17037.673    
      6700   301.93404     -38181.151      0             -37682.546     -15369.412    
      6750   303.01055     -38178.927      0             -37678.545     -16508.325    
      6800   280.95532     -38130.333      0             -37666.372     -14872.279    
      6850   311.10436     -38190.836      0             -37677.088     -16574.208    
      6900   295.20662     -38166.55       0             -37679.055     -15269.6      
      6950   305.72961     -38182.166      0             -37677.294     -16697.44     
      7000   288.38234     -38162.702      0             -37686.476     -15451.192    
      7050   295.95599     -38151.482      0             -37662.75      -15965.681    
      7100   294.65093     -38156.337      0             -37669.76      -16811.152    
      7150   293.90631     -38147.242      0             -37661.894     -15679.54     
      7200   295.14157     -38147.634      0             -37660.247     -16819.995    
      7250   295.04175     -38151.204      0             -37663.981     -16276.904    
      7300   287.81182     -38113.073      0             -37637.79      -15866.084    
      7350   283.57693     -38093.148      0             -37624.858     -15466.318    
      7400   295.19321     -38134.585      0             -37647.112     -16807.112    
      7450   300.31658     -38122.306      0             -37626.373     -15718        
      7500   299.73872     -38122.4        0             -37627.421     -16667.489    
      7550   308.2345      -38132.322      0             -37623.313     -15432.918    
      7600   320.62962     -38161.755      0             -37632.277     -17112.992    
      7650   319.27129     -38182.889      0             -37655.655     -15805.605    
      7700   302.24484     -38157.034      0             -37657.916     -16444.57     
      7750   307.93595     -38191.892      0             -37683.376     -16398.808    
      7800   300.93627     -38155.276      0             -37658.319     -16805.444    
      7850   300.73767     -38166.292      0             -37669.663     -17002.623    
      7900   311.63528     -38169.543      0             -37654.918     -17197.912    
      7950   304.45143     -38169.953      0             -37667.192     -16635.576    
      8000   307.38509     -38190.424      0             -37682.818     -16574.453    
      8050   293.24894     -38172.336      0             -37688.074     -15707.925    
      8100   300.86759     -38177.7        0             -37680.857     -15338.888    
      8150   314.60982     -38201.057      0             -37681.52      -16135.053    
      8200   296.98939     -38186.895      0             -37696.456     -15604.467    
      8250   307.29153     -38194.831      0             -37687.38      -16148.699    
      8300   285.01916     -38168.684      0             -37698.013     -15912.871    
      8350   296.6608      -38186.251      0             -37696.355     -16452.408    
      8400   296.63855     -38185.639      0             -37695.78      -15010.965    
      8450   300.32716     -38212.07       0             -37716.119     -16244.308    
      8500   307.59999     -38192.721      0             -37684.76      -15235.736    
      8550   306.87799     -38195.071      0             -37688.302     -17005.66     
      8600   288.80744     -38168.231      0             -37691.303     -14934.732    
      8650   292.45124     -38173.788      0             -37690.843     -17250.973    
      8700   302.75461     -38205.591      0             -37705.631     -15807.564    
      8750   303.80273     -38181.496      0             -37679.805     -16448.072    
      8800   303.77089     -38201.867      0             -37700.229     -15504.023    
      8850   310.5004      -38195.871      0             -37683.12      -16911.065    
      8900   305.8838      -38203.119      0             -37697.992     -15106.549    
      8950   309.68712     -38209.233      0             -37697.825     -16915.383    
      9000   306.3266      -38201.465      0             -37695.607     -14794.687    
      9050   306.23238     -38207.02       0             -37701.317     -16850.825    
      9100   300.75437     -38208.839      0             -37712.183     -15981.519    
      9150   300.57978     -38215.475      0             -37719.107     -17603.468    
      9200   282.92309     -38169.397      0             -37702.187     -14629.188    
      9250   294.38375     -38182.175      0             -37696.039     -17183.739    
      9300   307.61533     -38225.073      0             -37717.087     -15762.559    
      9350   303.52462     -38213.331      0             -37712.1       -17017.117    
      9400   289.73234     -38192.475      0             -37714.02      -15803.199    
      9450   303.68873     -38196.198      0             -37694.696     -16721.811    
      9500   294.38341     -38179.133      0             -37692.998     -15277.948    
      9550   302.67085     -38196.432      0             -37696.611     -16215.893    
      9600   304.26913     -38214.004      0             -37711.543     -16791.055    
      9650   291.11927     -38187.326      0             -37706.58      -16414.329    
      9700   296.3657      -38181.271      0             -37691.862     -16424.801    
      9750   298.25492     -38198.715      0             -37706.186     -16624.911    
      9800   295.62466     -38193.927      0             -37705.742     -16658.939    
      9850   304.77001     -38190.7        0             -37687.412     -15414.102    
      9900   310.20465     -38212.109      0             -37699.847     -16548.66     
      9950   302.37503     -38189.816      0             -37690.483     -16068.583    
     10000   301.22078     -38194.629      0             -37697.203     -16611.328    
     10050   287.30036     -38164.633      0             -37690.194     -15391.542    
     10100   294.90707     -38194.963      0             -37707.962     -16855.678    
     10150   301.7939      -38204.173      0             -37705.8       -15427.23     
     10200   302.66893     -38192.913      0             -37693.095     -16769.905    
     10250   299.55568     -38192.526      0             -37697.849     -14692.55     
     10300   311.19747     -38200.74       0             -37686.838     -16788.616    
     10350   307.83577     -38233.266      0             -37724.916     -15023.985    
     10400   300.22822     -38189.173      0             -37693.386     -16819.032    
     10450   310.21473     -38218.219      0             -37705.94      -13130.228    
     10500   291.46419     -38193.496      0             -37712.181     -17111.254    
     10550   292.66995     -38203.075      0             -37719.769     -13468.445    
     10600   290.53516     -38200.827      0             -37721.046     -18597.321    
     10650   307.71577     -38196.974      0             -37688.821     -13666.468    
     10700   311.04487     -38231.007      0             -37717.357     -18428.943    
     10750   295.216       -38206.59       0             -37719.079     -14225.715    
     10800   297.55748     -38199.635      0             -37708.258     -18304.859    
     10850   297.9975      -38222.999      0             -37730.895     -15216.099    
     10900   298.8504      -38200.117      0             -37706.605     -17033.544    
     10950   296.7848      -38185.563      0             -37695.462     -14287.281    
     11000   294.38801     -38178.242      0             -37692.099     -17050.431    
     11050   314.14482     -38252.463      0             -37733.694     -15202.208    
     11100   295.99971     -38196.337      0             -37707.532     -16742.527    
     11150   299.96706     -38204.599      0             -37709.243     -14044.79     
     11200   298.17837     -38206.666      0             -37714.263     -16986.77     
     11250   300.81191     -38212.024      0             -37715.272     -14886.887    
     11300   300.21324     -38230.586      0             -37734.823     -17982.012    
     11350   291.52999     -38172.578      0             -37691.155     -15494.064    
     11400   304.70429     -38207.343      0             -37704.164     -16247.166    
     11450   297.37601     -38221.098      0             -37730.021     -14888.227    
     11500   294.47878     -38215.446      0             -37729.153     -15951.366    
     11550   304.45388     -38216.958      0             -37714.192     -15473.666    
     11600   299.83382     -38215.337      0             -37720.201     -15620.553    
     11650   289.42649     -38197.095      0             -37719.145     -16254.129    
     11700   309.30777     -38224.337      0             -37713.556     -15875.591    
     11750   297.50336     -38198.172      0             -37706.885     -16605.103    
     11800   301.3294      -38228.575      0             -37730.97      -15338.843    
     11850   302.43384     -38212.447      0             -37713.018     -16336.874    
     11900   294.60328     -38218.725      0             -37732.226     -15030.05     
     11950   298.6704      -38219.53       0             -37726.315     -16623.856    
     12000   292.73641     -38184.369      0             -37700.954     -14932.999    
     12050   303.39006     -38199.752      0             -37698.743     -16869.704    
     12100   309.49678     -38204.09       0             -37692.997     -14610.714    
     12150   302.62866     -38210.391      0             -37710.64      -16070.247    
     12200   306.86641     -38227.648      0             -37720.899     -14892.47     
     12250   299.95193     -38235.652      0             -37740.32      -17818.895    
     12300   301.05245     -38237.114      0             -37739.965     -14711.187    
     12350   302.96639     -38227.111      0             -37726.802     -17146.533    
     12400   290.47625     -38200.235      0             -37720.552     -14682.226    
     12450   310.68947     -38222.116      0             -37709.053     -16370.175    
     12500   313.14472     -38228.947      0             -37711.83      -15262.534    
     12550   306.36333     -38228.782      0             -37722.863     -16643.4      
     12600   286.54008     -38230.22       0             -37757.037     -15378.233    
     12650   294.41754     -38232.762      0             -37746.571     -16631.629    
     12700   292.11081     -38215.349      0             -37732.966     -15439.419    
     12750   292.57602     -38191.991      0             -37708.84      -15919.994    
     12800   298.27586     -38210.179      0             -37717.616     -15164.224    
     12850   304.35496     -38235.172      0             -37732.57      -16505.714    
     12900   283.3757      -38170.631      0             -37702.673     -15871.453    
     12950   304.1247      -38197.922      0             -37695.7       -15411.77     
     13000   305.21422     -38203.352      0             -37699.33      -16032.016    
     13050   283.80931     -38194.464      0             -37725.791     -15345.037    
     13100   302.07184     -38217.71       0             -37718.878     -16382.369    
     13150   301.97749     -38214.161      0             -37715.485     -16012.326    
     13200   289.50491     -38192.096      0             -37714.016     -16337.833    
     13250   310.69025     -38260.518      0             -37747.454     -16364.813    
     13300   305.59276     -38213.239      0             -37708.592     -16972.885    
     13350   282.21186     -38152.008      0             -37685.972     -15803.282    
     13400   295.85474     -38162.766      0             -37674.201     -15806.929    
     13450   295.61416     -38193.095      0             -37704.927     -17148.086    
     13500   309.18461     -38219.698      0             -37709.12      -14910.769    
     13550   292.4995      -38181.359      0             -37698.334     -17523.978    
     13600   308.93899     -38235.213      0             -37725.041     -15732.563    
     13650   295.48077     -38200.564      0             -37712.617     -17843.742    
     13700   299.4513      -38214.393      0             -37719.889     -14527.497    
     13750   302.02098     -38187.543      0             -37688.795     -17661.098    
     13800   294.36259     -38176.724      0             -37690.623     -14273.474    
     13850   303.92348     -38186.278      0             -37684.388     -18181.052    
     13900   299.34123     -38215.622      0             -37721.299     -14595.655    
     13950   302.56222     -38192.181      0             -37692.539     -18587.63     
     14000   295.18794     -38221.84       0             -37734.376     -15949.667    
     14050   309.20229     -38227.212      0             -37716.605     -18354.331    
     14100   290.75084     -38180.261      0             -37700.124     -15394.137    
     14150   284.87413     -38157.515      0             -37687.083     -18419.896    
     14200   286.27975     -38155.141      0             -37682.387     -15112.122    
     14250   311.95811     -38185.221      0             -37670.063     -17699.21     
     14300   288.77491     -38176.061      0             -37699.188     -14479.784    
     14350   301.80877     -38153.682      0             -37655.284     -17474.656    
     14400   293.54332     -38158.378      0             -37673.63      -15672.091    
     14450   308.8003      -38178.582      0             -37668.638     -17795.404    
     14500   290.55538     -38180.042      0             -37700.228     -15350.51     
     14550   307.91006     -38215.346      0             -37706.873     -17758.005    
     14600   302.1476      -38212.061      0             -37713.104     -15241.493    
     14650   304.09445     -38165.631      0             -37663.459     -16597.935    
     14700   299.14583     -38169.451      0             -37675.451     -15585.827    
     14750   305.24587     -38178.636      0             -37674.563     -16089.688    
     14800   310.42987     -38195.125      0             -37682.49      -15765.614    
     14850   308.87468     -38186.703      0             -37676.637     -15795.844    
     14900   310.14427     -38198.53       0             -37686.368     -16261.385    
     14950   302.52912     -38213.737      0             -37714.15      -16624.677    
     15000   303.03764     -38183.621      0             -37683.194     -15719.045    
     15050   293.01093     -38173.08       0             -37689.211     -15942.059    
     15100   305.03486     -38206.842      0             -37703.117     -16289.951    
     15150   316.66305     -38221.585      0             -37698.658     -16065.078    
     15200   307.04359     -38195.601      0             -37688.559     -15927.195    
     15250   311.49826     -38216.87       0             -37702.471     -15926.722    
     15300   288.45623     -38180.483      0             -37704.135     -16615.309    
     15350   299.4075      -38178.878      0             -37684.446     -16071.398    
     15400   304.69066     -38197.999      0             -37694.842     -16199.776    
     15450   303.98151     -38197.934      0             -37695.948     -16108.89     
     15500   298.06018     -38178.536      0             -37686.329     -16611.591    
     15550   303.71008     -38212.257      0             -37710.72      -15771.14     
     15600   295.62643     -38207.588      0             -37719.4       -16136.923    
     15650   289.86017     -38183.86       0             -37705.194     -15228.375    
     15700   303.5321      -38208.83       0             -37707.587     -16585.59     
     15750   308.91579     -38223.704      0             -37713.57      -15177.27     
     15800   298.50601     -38220.949      0             -37728.005     -15696.147    
     15850   288.80566     -38207.143      0             -37730.219     -14684.062    
     15900   291.36807     -38191.891      0             -37710.735     -14836.052    
     15950   296.89425     -38205.254      0             -37714.972     -15266.715    
     16000   287.55907     -38167.178      0             -37692.312     -14833.368    
     16050   283.85239     -38203.206      0             -37734.462     -15660.443    
     16100   294.32929     -38182.433      0             -37696.387     -15625.226    
     16150   301.09048     -38215.128      0             -37717.916     -15777.614    
     16200   289.12187     -38194.782      0             -37717.336     -16220.315    
     16250   288.79054     -38213.968      0             -37737.069     -16275.74     
     16300   288.38128     -38185.645      0             -37709.421     -15991.881    
     16350   303.49697     -38204.011      0             -37702.825     -16193.788    
     16400   298.82014     -38184.448      0             -37690.986     -15255.089    
     16450   298.06193     -38215.503      0             -37723.293     -16499.852    
     16500   299.34862     -38190.252      0             -37695.917     -14934.685    
     16550   295.72603     -38185.378      0             -37697.025     -16769.94     
     16600   311.93611     -38227.347      0             -37712.226     -14810.13     
     16650   300.63072     -38195.987      0             -37699.535     -16157.516    
     16700   305.79644     -38221.571      0             -37716.588     -15450.859    
     16750   298.84482     -38195.459      0             -37701.956     -16365.471    
     16800   311.21734     -38238.55       0             -37724.615     -15104.801    
     16850   315.91273     -38228.664      0             -37706.976     -16807.761    
     16900   291.85434     -38191.494      0             -37709.535     -14618.155    
     16950   302.63447     -38201.818      0             -37702.057     -16722.183    
     17000   300.18384     -38196.95       0             -37701.236     -15747.467    
     17050   292.33448     -38181.063      0             -37698.311     -16826.522    
     17100   299.02731     -38203.312      0             -37709.508     -15923.544    
     17150   306.02879     -38209.213      0             -37703.847     -16392.613    
     17200   306.83784     -38211.976      0             -37705.274     -15501.496    
     17250   309.147       -38201.499      0             -37690.984     -16477.114    
     17300   302.67163     -38215.461      0             -37715.639     -16339.841    
     17350   308.9554      -38233.98       0             -37723.78      -15947.357    
     17400   301.40652     -38208.805      0             -37711.072     -16050.209    
     17450   291.97623     -38199.353      0             -37717.193     -15043.51     
     17500   295.31135     -38188.922      0             -37701.254     -16454.712    
     17550   290.30771     -38199.45       0             -37720.045     -15917.599    
     17600   282.0678      -38178.051      0             -37712.253     -16391.698    
     17650   287.56567     -38183.982      0             -37709.105     -15967.726    
     17700   297.56024     -38182.872      0             -37691.49      -17095.545    
     17750   299.85558     -38187.479      0             -37692.306     -14908.473    
     17800   304.48355     -38207.013      0             -37704.198     -16293.413    
     17850   291.99875     -38170.77       0             -37688.572     -14696.646    
     17900   313.01011     -38186.749      0             -37669.854     -16011.464    
     17950   303.34757     -38184.911      0             -37683.972     -14716.949    
     18000   301.11817     -38162.204      0             -37664.947     -16551.273    
     18050   303.48007     -38189.397      0             -37688.24      -15358.613    
     18100   296.06774     -38162.158      0             -37673.241     -16817.969    
     18150   278.72839     -38150.764      0             -37690.48      -15571.486    
     18200   307.85729     -38174.079      0             -37665.693     -17209.821    
     18250   306.27762     -38185.286      0             -37679.508     -16050.036    
     18300   289.26747     -38157.41       0             -37679.722     -16773.002    
     18350   310.69521     -38155.732      0             -37642.66      -15375.536    
     18400   296.65077     -38137.704      0             -37647.825     -15541.195    
     18450   303.94935     -38194.668      0             -37692.735     -15946.377    
     18500   305.15021     -38182.08       0             -37678.165     -16146.643    
     18550   291.11381     -38186.73       0             -37705.994     -16466.979    
     18600   305.26864     -38177.475      0             -37673.364     -15588.964    
     18650   295.08154     -38159.342      0             -37672.053     -16020.031    
     18700   307.60941     -38185.99       0             -37678.014     -15319.94     
     18750   299.33058     -38165.8        0             -37671.495     -16791.575    
     18800   310.35051     -38177.534      0             -37665.031     -15260.222    
     18850   303.02686     -38155.366      0             -37654.957     -16898.806    
     18900   295.50216     -38163.124      0             -37675.141     -14796.272    
     18950   289.718       -38146.061      0             -37667.63      -16482.544    
     19000   300.19251     -38133.816      0             -37638.088     -14516.968    
     19050   283.48458     -38113.2        0             -37645.063     -16741.56     
     19100   309.88486     -38140.531      0             -37628.797     -14483.77     
     19150   321.4079      -38176.273      0             -37645.51      -17375.783    
     19200   303.17526     -38138.612      0             -37637.958     -15046.432    
     19250   284.91924     -38097.611      0             -37627.104     -17217.574    
     19300   302.28771     -38146.908      0             -37647.719     -14987.256    
     19350   309.44578     -38140.968      0             -37629.959     -17153.929    
     19400   298.80286     -38143.186      0             -37649.752     -14706.611    
     19450   288.34406     -38136.209      0             -37660.046     -17056.89     
     19500   302.7676      -38150.588      0             -37650.607     -14734.811    
     19550   297.41952     -38119.691      0             -37628.542     -16310.09     
     19600   302.57131     -38140.778      0             -37641.122     -15020.173    
     19650   298.29061     -38149.869      0             -37657.282     -17560.027    
     19700   309.5586      -38148.567      0             -37637.371     -16284.512    
     19750   302.92026     -38151.12       0             -37650.887     -17825.61     
     19800   313.93453     -38163.427      0             -37645.005     -16368.048    
     19850   309.36958     -38158.063      0             -37647.18      -17404.253    
     19900   297.95288     -38136.101      0             -37644.071     -15802.327    
     19950   301.52673     -38144.608      0             -37646.676     -16551.888    
     20000   300.55756     -38171.235      0             -37674.904     -16717.926    
     20050   292.35377     -38150.427      0             -37667.644     -15851.151    
     20100   297.89335     -38170.177      0             -37678.246     -16618.882    
     20150   306.44282     -38196.853      0             -37690.803     -15794.269    
     20200   304.60595     -38173.887      0             -37670.871     -15896.701    
     20250   297.19702     -38153.398      0             -37662.616     -15911.174    
     20300   308.72057     -38163.144      0             -37653.333     -16541.507    
     20350   284.03377     -38146.209      0             -37677.164     -16038.125    
     20400   306.0292      -38188.727      0             -37683.36      -17122.716    
     20450   292.24016     -38154.849      0             -37672.253     -15408.934    
     20500   308.08888     -38183.707      0             -37674.939     -17140.91     
     20550   302.63199     -38175.821      0             -37676.064     -15932.593    
     20600   298.47722     -38178.978      0             -37686.082     -15969.384    
     20650   304.61225     -38186.404      0             -37683.377     -16156.412    
     20700   301.96698     -38152.385      0             -37653.726     -15761.077    
     20750   301.93566     -38171.959      0             -37673.352     -15558.9      
     20800   291.99204     -38169.451      0             -37687.264     -16820.148    
     20850   300.63212     -38162.472      0             -37666.018     -16337.041    
     20900   303.52625     -38196.654      0             -37695.42      -15921.55     
     20950   297.35588     -38198.903      0             -37707.859     -16211.443    
     21000   298.62119     -38181.892      0             -37688.758     -16343.627    
     21050   301.351       -38155.581      0             -37657.939     -16478.487    
     21100   300.62602     -38187.895      0             -37691.451     -15723.446    
     21150   299.67632     -38193.355      0             -37698.478     -16826.343    
     21200   310.89145     -38209.047      0             -37695.651     -15359.658    
     21250   287.33728     -38199.224      0             -37724.724     -15871.985    
     21300   296.55963     -38186.728      0             -37696.999     -14962.721    
     21350   306.17684     -38219.135      0             -37713.524     -16048.21     
     21400   303.30526     -38196.861      0             -37695.992     -14871.583    
     21450   307.92113     -38195.27       0             -37686.778     -15806.407    
     21500   297.08058     -38217.1        0             -37726.51      -16357.759    
     21550   297.29456     -38188.7        0             -37697.757     -15908.245    
     21600   307.47713     -38232.46       0             -37724.702     -17085.888    
     21650   302.74853     -38215.135      0             -37715.185     -16179.945    
     21700   307.64859     -38212.297      0             -37704.255     -16141.614    
     21750   303.55364     -38196.32       0             -37695.041     -15505.203    
     21800   313.79406     -38248.176      0             -37729.986     -15703.06     
     21850   308.40399     -38228.897      0             -37719.608     -16054.021    
     21900   294.99169     -38209.685      0             -37722.545     -15127.462    
     21950   310.68219     -38225.99       0             -37712.939     -16069.42     
     22000   304.50557     -38220.438      0             -37717.587     -15600.76     
     22050   295.38833     -38196.64       0             -37708.845     -16017.271    
     22100   289.46422     -38205.676      0             -37727.664     -16100.801    
     22150   307.1921      -38252.202      0             -37744.914     -17450.135    
     22200   300.33914     -38220.983      0             -37725.012     -15959.555    
     22250   285.94398     -38187.108      0             -37714.909     -16372.115    
     22300   286.52054     -38195.721      0             -37722.57      -14679.357    
     22350   300.25588     -38217.266      0             -37721.433     -16531.484    
     22400   300.98102     -38199.684      0             -37702.654     -15000.207    
     22450   312.34823     -38235.007      0             -37719.204     -16495.881    
     22500   297.46873     -38222.833      0             -37731.602     -14926.694    
     22550   301.22085     -38244.759      0             -37747.333     -16876.274    
     22600   310.92437     -38245.792      0             -37732.342     -16118.036    
     22650   295.07479     -38197.627      0             -37710.349     -16206.806    
     22700   280.90953     -38187.512      0             -37723.627     -15576.839    
     22750   294.36093     -38186.592      0             -37700.493     -15997.072    
     22800   301.78055     -38220.487      0             -37722.136     -15904.587    
     22850   310.16207     -38239.379      0             -37727.187     -16270.052    
     22900   308.88983     -38243.458      0             -37733.367     -16135.644    
     22950   286.50966     -38197.47       0             -37724.337     -15973.079    
     23000   305.94918     -38259.22       0             -37753.985     -16916.878    
     23050   296.04372     -38200.459      0             -37711.581     -16003.283    
     23100   293.62008     -38215.255      0             -37730.38      -15635.533    
     23150   296.04226     -38204.092      0             -37715.217     -16671.438    
     23200   288.87171     -38206.1        0             -37729.066     -15337.345    
     23250   292.17213     -38222.998      0             -37740.514     -16796.866    
     23300   298.28738     -38215.952      0             -37723.369     -15697.039    
     23350   304.41055     -38226.859      0             -37724.165     -17640.356    
     23400   292.90266     -38191.989      0             -37708.298     -16125.963    
     23450   289.30314     -38186.837      0             -37709.091     -16414.777    
     23500   301.7222      -38200.123      0             -37701.868     -15826.689    
     23550   295.6391      -38195.688      0             -37707.478     -16664.01     
     23600   293.81461     -38223.358      0             -37738.162     -15902.963    
     23650   303.56445     -38202.69       0             -37701.393     -16937.843    
     23700   296.53454     -38194.424      0             -37704.736     -15195.956    
     23750   289.77535     -38184.917      0             -37706.391     -17222.266    
     23800   298.8144      -38200.628      0             -37707.175     -15569.67     
     23850   307.09835     -38186.213      0             -37679.081     -17139.065    
     23900   322.35242     -38246.542      0             -37714.22      -15724.267    
     23950   310.91915     -38223.76       0             -37710.318     -16213.12     
     24000   296.01435     -38210.371      0             -37721.542     -15880.352    
     24050   306.6568      -38222.825      0             -37716.422     -16329.738    
     24100   298.84155     -38222.241      0             -37728.743     -16163.083    
     24150   294.43523     -38220.842      0             -37734.621     -16779.757    
     24200   294.91545     -38226.351      0             -37739.336     -16020.199    
     24250   304.93947     -38214.198      0             -37710.63      -16081.702    
     24300   294.00511     -38195.025      0             -37709.514     -15722.057    
     24350   293.7316      -38184.713      0             -37699.653     -15747.956    
     24400   292.54962     -38203.422      0             -37720.315     -16414.727    
     24450   312.1544      -38227.346      0             -37711.864     -15996.753    
     24500   294.24072     -38216.606      0             -37730.706     -16283.367    
     24550   321.33047     -38235.369      0             -37704.734     -14953.724    
     24600   299.9051      -38237.637      0             -37742.383     -16838.507    
     24650   297.39797     -38208.101      0             -37716.987     -14681.636    
     24700   300.1505      -38208.053      0             -37712.394     -16630.048    
     24750   294.85257     -38220.575      0             -37733.665     -15472.639    
     24800   292.28882     -38208.423      0             -37725.746     -16779.717    
     24850   300.51926     -38182.632      0             -37686.364     -14431.402    
     24900   302.40793     -38194.648      0             -37695.261     -17615.307    
     24950   288.29249     -38186.239      0             -37710.161     -14579.167    
     25000   289.69493     -38163.349      0             -37684.956     -17623.397    
     25050   307.19804     -38195.096      0             -37687.798     -14763.047    
     25100   302.59377     -38191.054      0             -37691.36      -17769.591    
     25150   291.69653     -38195.06       0             -37713.362     -14711.391    
     25200   314.62688     -38224.774      0             -37705.209     -18041.904    
     25250   297.68838     -38200.581      0             -37708.987     -13956.239    
     25300   311.06576     -38217.329      0             -37703.645     -17968.865    
     25350   302.96485     -38227.537      0             -37727.231     -13548.085    
     25400   309.04666     -38205.784      0             -37695.434     -18023.03     
     25450   297.03379     -38214.73       0             -37724.217     -13184.618    
     25500   296.5502      -38220.748      0             -37731.034     -18233.052    
     25550   287.61901     -38211.789      0             -37736.824     -13717.279    
     25600   291.30673     -38208.1        0             -37727.045     -17609.344    
     25650   298.33861     -38233.127      0             -37740.46      -13909.203    
     25700   309.79634     -38221.569      0             -37709.981     -17593.559    
     25750   296.9543      -38220.908      0             -37730.527     -13283.201    
     25800   293.51816     -38226.779      0             -37742.072     -17154.533    
     25850   291.79363     -38192.938      0             -37711.079     -13377.777    
     25900   306.16498     -38228.749      0             -37723.158     -16631.001    
     25950   307.61101     -38227.529      0             -37719.55      -14153.27     
     26000   309.74016     -38216.133      0             -37704.638     -16552.104    
     26050   305.39046     -38222.877      0             -37718.564     -14768.795    
     26100   299.31036     -38241.906      0             -37747.634     -16723.431    
     26150   303.91639     -38216.711      0             -37714.833     -15429.81     
     26200   286.31745     -38206.346      0             -37733.53      -16010.847    
     26250   290.50842     -38200.313      0             -37720.577     -16097.395    
     26300   287.94542     -38214.612      0             -37739.107     -15215.164    
     26350   314.78694     -38242.762      0             -37722.933     -16762.526    
     26400   299.71859     -38228.253      0             -37733.308     -14881.082    
     26450   311.14062     -38215.872      0             -37702.064     -17188.624    
     26500   294.20784     -38191.404      0             -37705.559     -13888.158    
     26550   294.67751     -38196.405      0             -37709.784     -17100.225    
     26600   297.74784     -38178.803      0             -37687.111     -13974.503    
     26650   283.72379     -38171.479      0             -37702.947     -18516.499    
     26700   303.95292     -38178.168      0             -37676.229     -14959.175    
     26750   303.1462      -38167.687      0             -37667.081     -18272.49     
     26800   302.70272     -38191.757      0             -37691.884     -14432.868    
     26850   297.55106     -38187.729      0             -37696.362     -17651.16     
     26900   288.55138     -38137.155      0             -37660.65      -13662.722    
     26950   298.52661     -38176.087      0             -37683.11      -18370.74     
     27000   293.581       -38173.801      0             -37688.99      -14197.795    
     27050   307.99266     -38171.6        0             -37662.99      -18094.631    
     27100   293.85349     -38155.328      0             -37670.068     -14876.445    
     27150   301.09239     -38157.843      0             -37660.628     -17901.29     
     27200   280.15962     -38124.923      0             -37662.276     -14128.768    
     27250   295.68372     -38144.698      0             -37656.416     -16925.739    
     27300   301.1589      -38161.247      0             -37663.923     -15333.031    
     27350   296.96768     -38140.934      0             -37650.531     -16659.186    
     27400   292.5216      -38139.966      0             -37656.905     -15067.253    
     27450   307.25662     -38169.404      0             -37662.01      -16395.314    
     27500   306.61196     -38190.967      0             -37684.638     -16248.957    
     27550   305.08419     -38186.416      0             -37682.61      -16499.817    
     27600   301.22535     -38179.578      0             -37682.144     -16342.43     
     27650   295.41565     -38170.724      0             -37682.884     -15794.329    
     27700   302.69593     -38201.324      0             -37701.461     -15665.515    
     27750   309.18652     -38197.112      0             -37686.531     -15612.365    
     27800   299.13133     -38198.127      0             -37704.151     -16032.087    
     27850   311.09016     -38203.453      0             -37689.729     -16553.19     
     27900   301.09378     -38213.49       0             -37716.274     -17133.595    
     27950   293.18411     -38177.151      0             -37692.996     -15754.992    
     28000   306.06314     -38192.236      0             -37686.813     -16856.371    
     28050   292.69496     -38170.908      0             -37687.56      -15672.49     
     28100   295.05948     -38198.178      0             -37710.926     -17177.005    
     28150   303.70055     -38182.15       0             -37680.629     -14826.356    
     28200   302.63487     -38199.382      0             -37699.621     -17264.714    
     28250   296.93227     -38175.785      0             -37685.44      -14513.971    
     28300   301.13478     -38206.52       0             -37709.236     -18092.245    
     28350   300.91194     -38172.891      0             -37675.974     -14829.621    
     28400   289.29326     -38161.47       0             -37683.74      -18138.853    
     28450   306.38338     -38199.2        0             -37693.248     -14397.509    
     28500   308.94203     -38192.724      0             -37682.547     -17328.495    
     28550   312.75177     -38207.465      0             -37690.997     -15020.417    
     28600   312.15953     -38215.196      0             -37699.705     -16708.115    
     28650   291.77559     -38192.909      0             -37711.08      -15973.455    
     28700   311.62408     -38206.885      0             -37692.279     -17022.243    
     28750   296.83305     -38198.663      0             -37708.482     -15753.041    
     28800   309.18034     -38211.947      0             -37701.376     -16192.946    
     28850   300.82737     -38208.639      0             -37711.862     -16008.695    
     28900   304.72089     -38237.583      0             -37734.376     -16291.938    
     28950   304.03692     -38243.727      0             -37741.65      -16542.364    
     29000   307.40626     -38231.001      0             -37723.36      -15438.571    
     29050   296.22728     -38217.107      0             -37727.926     -16104.708    
     29100   302.98977     -38216.065      0             -37715.717     -15140.899    
     29150   295.06869     -38187.735      0             -37700.468     -15462.175    
     29200   302.24562     -38190.098      0             -37690.979     -15095.05     
     29250   309.99116     -38227.971      0             -37716.062     -17131.752    
     29300   300.8171      -38228.357      0             -37731.597     -15174.065    
     29350   309.88701     -38228.459      0             -37716.721     -17063.133    
     29400   301.88799     -38224.908      0             -37726.38      -14527.263    
     29450   310.77635     -38250.986      0             -37737.779     -17319.483    
     29500   303.43158     -38240.343      0             -37739.265     -15100.9      
     29550   291.01764     -38205.21       0             -37724.633     -15802.725    
     29600   311.04164     -38247.291      0             -37733.647     -14850.88     
     29650   301.17067     -38224.949      0             -37727.606     -15242.859    
     29700   290.62849     -38218.724      0             -37738.789     -14589.708    
     29750   300.10911     -38238.868      0             -37743.277     -15722.988    
     29800   293.26479     -38212.237      0             -37727.949     -14668.038    
     29850   316.00576     -38228.208      0             -37706.366     -15696.502    
     29900   297.77955     -38241.581      0             -37749.838     -15481.228    
     29950   303.50293     -38271.426      0             -37770.23      -17095.627    
     30000   300.78225     -38231.199      0             -37734.497     -15527.575    
     30050   293.96306     -38218.618      0             -37733.176     -15738.795    
     30100   295.93945     -38253.107      0             -37764.402     -14950.11     
     30150   302.4739      -38236.502      0             -37737.006     -15599.193    
     30200   286.6664      -38239.3        0             -37765.908     -16003.517    
     30250   292.02356     -38227.786      0             -37745.547     -15462.259    
     30300   309.16054     -38256.744      0             -37746.206     -16466.355    
     30350   312.50404     -38244.639      0             -37728.579     -14483.198    
     30400   288.73919     -38249.357      0             -37772.542     -16159.067    
     30450   303.7969      -38229.986      0             -37728.305     -14292.832    
     30500   301.4955      -38231.896      0             -37734.016     -16084.861    
     30550   298.24758     -38242.031      0             -37749.514     -14515.882    
     30600   290.56782     -38217.993      0             -37738.158     -16567.559    
     30650   303.24116     -38243.929      0             -37743.166     -14263.993    
     30700   308.009       -38262.038      0             -37753.402     -17759.598    
     30750   300.66989     -38237.112      0             -37740.596     -15286.134    
     30800   304.09267     -38240.547      0             -37738.378     -17359.859    
     30850   294.61924     -38220.999      0             -37734.474     -14652.303    
     30900   302.55305     -38247.75       0             -37748.123     -17026.388    
     30950   295.42608     -38231.334      0             -37743.476     -16116.463    
     31000   298.52548     -38230.993      0             -37738.018     -17100.652    
     31050   301.55118     -38214.211      0             -37716.239     -15558.338    
     31100   302.67178     -38201.807      0             -37701.984     -16417.759    
     31150   291.17881     -38219.799      0             -37738.956     -14938.122    
     31200   314.89996     -38269.954      0             -37749.938     -16854.213    
     31250   302.34252     -38259.854      0             -37760.575     -14933.962    
     31300   292.36568     -38242.752      0             -37759.949     -16822.352    
     31350   285.04501     -38223.125      0             -37752.41      -15112.689    
     31400   282.15156     -38223.039      0             -37757.103     -17603.602    
     31450   298.35014     -38221.962      0             -37729.276     -15416.18     
     31500   290.05958     -38181.987      0             -37702.992     -17327.712    
     31550   292.23286     -38205.321      0             -37722.737     -15201.373    
     31600   297.73968     -38203.802      0             -37712.124     -17611.687    
     31650   296.29761     -38193.521      0             -37704.225     -15993.789    
     31700   297.10349     -38195.339      0             -37704.712     -17196.807    
     31750   300.96588     -38174.084      0             -37677.079     -16102.251    
     31800   283.80764     -38171.581      0             -37702.909     -16306.52     
     31850   315.35737     -38222.668      0             -37701.897     -16767.25     
     31900   295.12071     -38162.349      0             -37674.996     -16379.829    
     31950   305.5751      -38188.783      0             -37684.166     -15957.891    
     32000   319.9778      -38235.466      0             -37707.065     -17312.429    
     32050   300.51946     -38216.291      0             -37720.022     -16210.648    
     32100   296.4933      -38195.263      0             -37705.644     -16910.834    
     32150   302.74935     -38211.86       0             -37711.909     -16278.457    
     32200   308.63071     -38228.991      0             -37719.328     -17042.693    
     32250   302.95471     -38178.925      0             -37678.635     -16313.64     
     32300   301.78832     -38205.355      0             -37706.991     -17451.578    
     32350   302.73716     -38172.348      0             -37672.417     -15953.837    
     32400   301.7003      -38204.844      0             -37706.626     -17319.881    
     32450   314.03718     -38204.166      0             -37685.575     -16454.451    
     32500   302.30405     -38210.048      0             -37710.833     -16871.028    
     32550   308.80118     -38218.165      0             -37708.22      -16635.919    
     32600   309.80694     -38210.127      0             -37698.521     -16031.669    
     32650   295.37437     -38183.732      0             -37695.96      -16711.947    
     32700   311.16795     -38205.399      0             -37691.546     -15786.025    
     32750   298.015       -38201.335      0             -37709.203     -16738.744    
     32800   298.56656     -38184.444      0             -37691.401     -14248.958    
     32850   291.88735     -38176.931      0             -37694.917     -16790.716    
     32900   304.33736     -38221.281      0             -37718.708     -13635.018    
     32950   302.01391     -38206.045      0             -37707.309     -16990.038    
     33000   302.20081     -38203.863      0             -37704.818     -13512.154    
     33050   294.84033     -38193.621      0             -37706.731     -16611.786    
     33100   293.15682     -38184.944      0             -37700.834     -14018.571    
     33150   297.56609     -38190.382      0             -37698.991     -17916.579    
     33200   302.84358     -38194.881      0             -37694.775     -14136.789    
     33250   297.03738     -38195.309      0             -37704.791     -16296.995    
     33300   305.95222     -38195.061      0             -37689.822     -14837.738    
     33350   317.35285     -38213.198      0             -37689.131     -15854.052    
     33400   303.49042     -38206.911      0             -37705.736     -14988.548    
     33450   299.10878     -38190.464      0             -37696.525     -15835.247    
     33500   300.8498      -38192.674      0             -37695.86      -14376.195    
     33550   308.45647     -38226.261      0             -37716.886     -15423.625    
     33600   299.54427     -38205.821      0             -37711.163     -15176.237    
     33650   295.88235     -38208.804      0             -37720.193     -15873.555    
     33700   305.62168     -38215.899      0             -37711.205     -15204.759    
     33750   294.27343     -38192.273      0             -37706.319     -15052.837    
     33800   306.03317     -38232.461      0             -37727.088     -15960.518    
     33850   288.00673     -38188.761      0             -37713.156     -15999.938    
     33900   303.27868     -38190.407      0             -37689.583     -16014.856    
     33950   288.58923     -38192.531      0             -37715.964     -15764.281    
     34000   279.93932     -38186.452      0             -37724.169     -15472.139    
     34050   305.37967     -38198.411      0             -37694.117     -15222.282    
     34100   297.59213     -38185.683      0             -37694.249     -16061.343    
     34150   290.79073     -38184.012      0             -37703.81      -16017.182    
     34200   286.62505     -38173.739      0             -37700.415     -15514.434    
     34250   289.83835     -38164.691      0             -37686.061     -16036.953    
     34300   314.90713     -38208.07       0             -37688.042     -15250.701    
     34350   289.16377     -38175.177      0             -37697.661     -15466.516    
     34400   307.40261     -38208.509      0             -37700.874     -16155.756    
     34450   296.28598     -38188.151      0             -37698.874     -15860.173    
     34500   305.61911     -38201.092      0             -37696.402     -16960.241    
     34550   283.77147     -38168.247      0             -37699.636     -16325.536    
     34600   300.70009     -38187.62       0             -37691.053     -16595.781    
     34650   314.37553     -38204.547      0             -37685.397     -15509.545    
     34700   298.27894     -38200.962      0             -37708.393     -15392.932    
     34750   301.14543     -38219.32       0             -37722.018     -16301.388    
     34800   307.93595     -38205.785      0             -37697.269     -15948.63     
     34850   301.94776     -38184.03       0             -37685.403     -16251.143    
     34900   302.39399     -38186.193      0             -37686.829     -16181.221    
     34950   300.10902     -38200.219      0             -37704.628     -16204.066    
     35000   302.14521     -38219.12       0             -37720.167     -16381.516    
     35050   300.77784     -38222.115      0             -37725.42      -16288.672    
     35100   305.90126     -38205.967      0             -37700.811     -16570.952    
     35150   294.28137     -38206.913      0             -37720.946     -15851.464    
     35200   299.49902     -38196.39       0             -37701.807     -16103.145    
     35250   291.79775     -38207.65       0             -37725.785     -16343.945    
     35300   300.25983     -38218.855      0             -37723.015     -16355.022    
     35350   292.15803     -38210.901      0             -37728.441     -16581.546    
     35400   300.03994     -38197.641      0             -37702.165     -16610.969    
     35450   289.53255     -38185.311      0             -37707.186     -17672.864    
     35500   288.11561     -38160.791      0             -37685.006     -16265.271    
     35550   299.56049     -38192.075      0             -37697.39      -16955.791    
     35600   298.78267     -38206.507      0             -37713.107     -15952.46     
     35650   299.96767     -38194.647      0             -37699.29      -16750.096    
     35700   303.22274     -38172.739      0             -37672.006     -15616.246    
     35750   294.0808      -38173.715      0             -37688.079     -16480.828    
     35800   290.9128      -38170.524      0             -37690.12      -16719.436    
     35850   305.82474     -38195.804      0             -37690.775     -16052.171    
     35900   301.41485     -38179.933      0             -37682.186     -15818.739    
     35950   298.34307     -38194.619      0             -37701.945     -16035.834    
     36000   304.1642      -38206.879      0             -37704.592     -16214.756    
     36050   313.91089     -38227.744      0             -37709.362     -16230.975    
     36100   303.8407      -38228.275      0             -37726.522     -16806.493    
     36150   303.53519     -38238.825      0             -37737.577     -15984.151    
     36200   305.70298     -38223.039      0             -37718.211     -17058.515    
     36250   294.49984     -38224.105      0             -37737.777     -15847.349    
     36300   279.51124     -38204.318      0             -37742.742     -17320.911    
     36350   293.13976     -38219.421      0             -37735.339     -16180.299    
     36400   309.46239     -38221.795      0             -37710.758     -17086.493    
     36450   298.76035     -38202.599      0             -37709.235     -15584.489    
     36500   291.89723     -38196.395      0             -37714.365     -16543.614    
     36550   299.26798     -38220.656      0             -37726.455     -14709.669    
     36600   306.82886     -38221.408      0             -37714.721     -17421.588    
     36650   296.01416     -38225.777      0             -37736.948     -14495.239    
     36700   301.40366     -38214.372      0             -37716.644     -16879.949    
     36750   306.91282     -38220.129      0             -37713.303     -14720.781    
     36800   294.91731     -38216.666      0             -37729.648     -16544.005    
     36850   299.62019     -38222.171      0             -37727.387     -14994.739    
     36900   306.5848      -38243.467      0             -37737.183     -16846.937    
     36950   305.98495     -38224.214      0             -37718.92      -15277.125    
     37000   298.07836     -38206.526      0             -37714.289     -15711.025    
     37050   288.08232     -38230.271      0             -37754.541     -15778.615    
     37100   300.81381     -38209.67       0             -37712.916     -16556.024    
     37150   311.20748     -38233.977      0             -37720.059     -16585.923    
     37200   304.18028     -38238.697      0             -37736.383     -15101.144    
     37250   305.85256     -38234.367      0             -37729.291     -17209.883    
     37300   284.37511     -38190.467      0             -37720.859     -14335.25     
     37350   304.73494     -38209.019      0             -37705.789     -17828.078    
     37400   305.65561     -38230.004      0             -37725.254     -14154.67     
     37450   306.13313     -38242.371      0             -37736.832     -17630.717    
     37500   302.0101      -38227.535      0             -37728.805     -14197.888    
     37550   310.15312     -38235.899      0             -37723.721     -17334.373    
     37600   296.71784     -38207.768      0             -37717.778     -14041.465    
     37650   285.61157     -38202.51       0             -37730.86      -17167.082    
     37700   302.04154     -38240.372      0             -37741.59      -14344.814    
     37750   307.12932     -38249.755      0             -37742.571     -17641.159    
     37800   296.40206     -38246.341      0             -37756.872     -14486.793    
     37850   289.6611      -38206.403      0             -37728.066     -16402.333    
     37900   295.55135     -38220.581      0             -37732.517     -15433.401    
     37950   298.87106     -38206.371      0             -37712.824     -17098.231    
     38000   295.67054     -38212.254      0             -37723.993     -16162.699    
     38050   300.33347     -38224.516      0             -37728.554     -16948.029    
     38100   308.48464     -38233.144      0             -37723.722     -16247.771    
     38150   304.33621     -38221.765      0             -37719.194     -16105.383    
     38200   294.73972     -38197.056      0             -37710.332     -15225.036    
     38250   298.69785     -38203.57       0             -37710.31      -15726.815    
     38300   304.42891     -38211.622      0             -37708.897     -17308.962    
     38350   299.81804     -38224.365      0             -37729.255     -16129.246    
     38400   301.23526     -38231.951      0             -37734.501     -17396.059    
     38450   301.04151     -38219.287      0             -37722.157     -15169.551    
     38500   300.97121     -38225.036      0             -37728.022     -16797.528    
     38550   319.9838      -38251.23       0             -37722.819     -15688.917    
     38600   293.17872     -38224.252      0             -37740.106     -16236.874    
     38650   301.11387     -38217.449      0             -37720.199     -16040.492    
     38700   283.76659     -38203.689      0             -37735.085     -16919.182    
     38750   321.16869     -38232.444      0             -37702.076     -15396.239    
     38800   289.99338     -38216.058      0             -37737.172     -17137.406    
     38850   312.51865     -38239.125      0             -37723.042     -15709.179    
     38900   302.156       -38219.047      0             -37720.076     -17063.621    
     38950   286.84742     -38210.271      0             -37736.58      -14763.195    
     39000   302.488       -38238.829      0             -37739.31      -16794.853    
     39050   301.04692     -38232.199      0             -37735.059     -14499.827    
     39100   308.91643     -38258.872      0             -37748.737     -17147.693    
     39150   294.81406     -38221.042      0             -37734.195     -14532.071    
     39200   294.18039     -38235.252      0             -37749.452     -17490.733    
     39250   303.56312     -38253.006      0             -37751.712     -15053.833    
     39300   300.37839     -38233.043      0             -37737.008     -17249.764    
     39350   313.05374     -38263.509      0             -37746.542     -15970.81     
     39400   298.4412      -38228.629      0             -37735.793     -17111.803    
     39450   295.94984     -38215.088      0             -37726.365     -15429.751    
     39500   311.30731     -38243.067      0             -37728.984     -15874.339    
     39550   304.85913     -38253.051      0             -37749.616     -15653.982    
     39600   311.5301      -38258.587      0             -37744.136     -16076.461    
     39650   289.55879     -38228.531      0             -37750.363     -15817.587    
     39700   286.64709     -38184.228      0             -37710.868     -15019.602    
     39750   291.02519     -38211.16       0             -37730.57      -16017.344    
     39800   293.77381     -38204.349      0             -37719.22      -15073.876    
     39850   303.92592     -38244.018      0             -37742.125     -16076.008    
     39900   292.27869     -38213.661      0             -37731.001     -15858.902    
     39950   300.00949     -38209.142      0             -37713.716     -16545.953    
     40000   300.06125     -38225.257      0             -37729.746     -15410.525    
     40050   296.12952     -38228.798      0             -37739.779     -16385.782    
     40100   303.70973     -38231.123      0             -37729.586     -14734.435    
     40150   315.44425     -38262.362      0             -37741.448     -16326.369    
     40200   295.57766     -38216.432      0             -37728.324     -14238.483    
     40250   298.65637     -38236.445      0             -37743.253     -17137.258    
     40300   301.09329     -38251.73       0             -37754.514     -15132.361    
     40350   296.57159     -38245.833      0             -37756.084     -17952.55     
     40400   301.48468     -38231.528      0             -37733.666     -14601.944    
     40450   290.68984     -38211.643      0             -37731.607     -18287.333    
     40500   300.79676     -38232.711      0             -37735.984     -13785.271    
     40550   290.4855      -38203.842      0             -37724.143     -17966.437    
     40600   317.25016     -38259.126      0             -37735.229     -14106.908    
     40650   319.20894     -38268.45       0             -37741.319     -16962.942    
     40700   296.44034     -38226.731      0             -37737.199     -13163.131    
     40750   302.91752     -38226.416      0             -37726.188     -17138.778    
     40800   296.99348     -38227.35       0             -37736.904     -13640.496    
     40850   310.9841      -38237.827      0             -37724.277     -17249.202    
     40900   298.21019     -38240.258      0             -37747.803     -14311.725    
     40950   284.64804     -38215.922      0             -37745.863     -17719.476    
     41000   298.04857     -38217.726      0             -37725.538     -15244.917    
     41050   293.1879      -38217.628      0             -37733.466     -16643.578    
     41100   303.98777     -38218.235      0             -37716.239     -15560.839    
     41150   294.08994     -38207.096      0             -37721.445     -16500.67     
     41200   297.97037     -38209.799      0             -37717.74      -16142.593    
     41250   299.64618     -38179.536      0             -37684.71      -16061.968    
     41300   302.79837     -38212.056      0             -37712.024     -16255.948    
     41350   306.4487      -38216.042      0             -37709.982     -16865.422    
     41400   306.74973     -38219.246      0             -37712.689     -15469.432    
     41450   314.36497     -38261.874      0             -37742.742     -16173.665    
     41500   297.58966     -38196.286      0             -37704.856     -15946.695    
     41550   311.95495     -38214.538      0             -37699.385     -15745.706    
     41600   293.0269      -38199.721      0             -37715.826     -17184.925    
     41650   293.54307     -38181.684      0             -37696.937     -14868.482    
     41700   290.40892     -38177.875      0             -37698.302     -17250.016    
     41750   301.29684     -38209.35       0             -37711.798     -14601.687    
     41800   299.77671     -38207.471      0             -37712.429     -17884.421    
     41850   293.4539      -38196.217      0             -37711.617     -14297.553    
     41900   309.18365     -38213.468      0             -37702.892     -17600.739    
     41950   305.68601     -38208.638      0             -37703.838     -14714.394    
     42000   295.72446     -38194.807      0             -37706.457     -16931.579    
     42050   296.57269     -38212.448      0             -37722.697     -14318.837    
     42100   303.39814     -38193.752      0             -37692.73      -16999.259    
     42150   306.13188     -38230.671      0             -37725.135     -14684.746    
     42200   300.70058     -38216.228      0             -37719.66      -16976.314    
     42250   304.11446     -38200.961      0             -37698.756     -14289.787    
     42300   301.9154      -38227.867      0             -37729.293     -17056.43     
     42350   287.97425     -38184.91       0             -37709.358     -14990.991    
     42400   287.21884     -38196.684      0             -37722.38      -17066.208    
     42450   304.22105     -38227.904      0             -37725.522     -15999.359    
     42500   298.4255      -38216.34       0             -37723.529     -16861.874    
     42550   307.61537     -38213.201      0             -37705.215     -15548.416    
     42600   301.12646     -38184.056      0             -37686.785     -16294.224    
     42650   313.33242     -38231.858      0             -37714.431     -16833.66     
     42700   296.14264     -38181.338      0             -37692.297     -15636.339    
     42750   302.8079      -38200.325      0             -37700.277     -16938.952    
     42800   294.34615     -38189.406      0             -37703.332     -15863.157    
     42850   294.33072     -38197.919      0             -37711.87      -16984.49     
     42900   301.8372      -38198.48       0             -37700.035     -15107.7      
     42950   307.97064     -38210.121      0             -37701.548     -17069.751    
     43000   308.97808     -38219.688      0             -37709.452     -15430.076    
     43050   313.44272     -38224.339      0             -37706.729     -17941.438    
     43100   300.62846     -38186.633      0             -37690.184     -14548.266    
     43150   298.97805     -38207.551      0             -37713.828     -18097.723    
     43200   310.83235     -38208.977      0             -37695.678     -14971.515    
     43250   305.90481     -38228.019      0             -37722.857     -18259.83     
     43300   290.61549     -38202.196      0             -37722.282     -14434.096    
     43350   294.18757     -38181.855      0             -37696.043     -17265.835    
     43400   303.36287     -38198.343      0             -37697.379     -14580.864    
     43450   309.54027     -38216.908      0             -37705.743     -17067.261    
     43500   297.93836     -38198.527      0             -37706.521     -14177.431    
     43550   307.49058     -38219.739      0             -37711.958     -17283.301    
     43600   306.19415     -38214.265      0             -37708.626     -15513.459    
     43650   314.99438     -38247.54       0             -37727.368     -16766.737    
     43700   293.03337     -38219.96       0             -37736.053     -15804.001    
     43750   294.19314     -38227.499      0             -37741.677     -16054.727    
     43800   301.67358     -38211.527      0             -37713.353     -16543.935    
     43850   304.19489     -38234.516      0             -37732.178     -16041.074    
     43900   305.5545      -38232.764      0             -37728.181     -16100.693    
     43950   296.57892     -38211.756      0             -37721.995     -15609.818    
     44000   306.93078     -38239.537      0             -37732.681     -16041.338    
     44050   301.86747     -38222.533      0             -37724.038     -15200.366    
     44100   287.41685     -38183.128      0             -37708.497     -16001.931    
     44150   306.3015      -38232.799      0             -37726.982     -15317.74     
     44200   293.11692     -38193.293      0             -37709.249     -15641.359    
     44250   301.8928      -38195.946      0             -37697.41      -15640.48     
     44300   297.2695      -38198.212      0             -37707.31      -15669.816    
     44350   292.45804     -38217.551      0             -37734.595     -16054.819    
     44400   303.74513     -38207.09       0             -37705.495     -17063.731    
     44450   291.41047     -38198.275      0             -37717.049     -16424.74     
     44500   298.85459     -38200.708      0             -37707.189     -16475.888    
     44550   309.63845     -38226.405      0             -37715.078     -15308.054    
     44600   312.20318     -38237.059      0             -37721.497     -16207.43     
     44650   293.44641     -38221.294      0             -37736.706     -16121.411    
     44700   311.05453     -38231.37       0             -37717.705     -16691.838    
     44750   303.27756     -38213.376      0             -37712.553     -15183.612    
     44800   297.08132     -38202.977      0             -37712.386     -16374.985    
     44850   304.16747     -38209.784      0             -37707.491     -16204.831    
     44900   301.72444     -38201.273      0             -37703.015     -16720.931    
     44950   293.06933     -38189.653      0             -37705.688     -15671.628    
     45000   293.29654     -38181.645      0             -37697.304     -16107.764    
     45050   310.71752     -38193.79       0             -37680.681     -15694.321    
     45100   297.36006     -38174.806      0             -37683.755     -16800.038    
     45150   302.7036      -38203.125      0             -37703.25      -16197.943    
     45200   306.72318     -38185.571      0             -37679.058     -17169.68     
     45250   292.77234     -38189.733      0             -37706.258     -14947.171    
     45300   296.09716     -38189.302      0             -37700.337     -17025.984    
     45350   298.8076      -38179.591      0             -37686.15      -14211.584    
     45400   298.55031     -38186.004      0             -37692.988     -17423.505    
     45450   304.81537     -38193.005      0             -37689.643     -13540.951    
     45500   297.17225     -38203.983      0             -37713.242     -17453.504    
     45550   295.92929     -38187.347      0             -37698.659     -13438.519    
     45600   295.86471     -38175.485      0             -37686.903     -17288.404    
     45650   300.09868     -38203.232      0             -37707.658     -14374.514    
     45700   309.00057     -38210.376      0             -37700.102     -16927.7      
     45750   291.0008      -38193.307      0             -37712.757     -14300.932    
     45800   308.8328      -38212.003      0             -37702.006     -16672.166    
     45850   304.24604     -38193.547      0             -37691.125     -13838.995    
     45900   304.05561     -38200.689      0             -37698.581     -16965.808    
     45950   293.11647     -38208.462      0             -37724.419     -13966.899    
     46000   299.45222     -38205.56       0             -37711.054     -17245.874    
     46050   298.01466     -38192.271      0             -37700.139     -14891.109    
     46100   314.254       -38210.109      0             -37691.16      -16685.155    
     46150   300.85252     -38208.069      0             -37711.251     -15031.098    
     46200   306.37517     -38213.721      0             -37707.783     -16392.943    
     46250   309.66975     -38241.675      0             -37730.296     -15528.687    
     46300   303.68096     -38216.428      0             -37714.939     -16804.759    
     46350   301.56588     -38207.674      0             -37709.677     -16126.732    
     46400   316.85724     -38225.939      0             -37702.691     -16553.283    
     46450   294.26948     -38213.93       0             -37727.983     -16064.4      
     46500   293.92688     -38189.239      0             -37703.857     -16066.99     
     46550   297.27837     -38191.788      0             -37700.871     -16583.673    
     46600   291.79887     -38184.692      0             -37702.824     -15947.255    
     46650   288.59713     -38175.807      0             -37699.227     -16765.708    
     46700   311.28671     -38218.907      0             -37704.858     -16323.118    
     46750   289.91595     -38182.883      0             -37704.125     -16325.367    
     46800   297.74056     -38186.42       0             -37694.74      -16016.721    
     46850   293.45603     -38164.863      0             -37680.259     -15628.552    
     46900   305.47366     -38209.217      0             -37704.768     -16655.479    
     46950   306.79795     -38211.506      0             -37704.87      -16621.018    
     47000   297.7461      -38189.89       0             -37698.201     -15974.634    
     47050   295.791       -38189.907      0             -37701.447     -16583.672    
     47100   301.02479     -38186.221      0             -37689.118     -15941.003    
     47150   309.60465     -38213.73       0             -37702.458     -16054.265    
     47200   303.9927      -38200.373      0             -37698.369     -15270.832    
     47250   297.77978     -38199.246      0             -37707.502     -16187.433    
     47300   293.82181     -38219.324      0             -37734.116     -15430.08     
     47350   304.88207     -38215.518      0             -37712.046     -14886.801    
     47400   295.28159     -38200.233      0             -37712.614     -16141.883    
     47450   301.6091      -38195.045      0             -37696.977     -15008.235    
     47500   309.25298     -38203.843      0             -37693.153     -16669.237    
     47550   307.50642     -38234.121      0             -37726.314     -15166.661    
     47600   298.16735     -38215.069      0             -37722.684     -16086.504    
     47650   303.21461     -38263.259      0             -37762.54      -14871.561    
     47700   308.55182     -38247.523      0             -37737.99      -17269.575    
     47750   303.82296     -38244.882      0             -37743.158     -15173.423    
     47800   303.67361     -38241.507      0             -37740.03      -17890.296    
     47850   313.37533     -38256.499      0             -37739.001     -15412.174    
     47900   294.94125     -38212.506      0             -37725.449     -16864.948    
     47950   307.29655     -38254.592      0             -37747.133     -15319.229    
     48000   297.40539     -38217.089      0             -37725.963     -17296.64     
     48050   301.14495     -38214.202      0             -37716.9       -14463.619    
     48100   303.01527     -38226.954      0             -37726.564     -17483.527    
     48150   296.21125     -38234.109      0             -37744.955     -15070.361    
     48200   308.9895      -38247.717      0             -37737.461     -16384.582    
     48250   301.0528      -38239.535      0             -37742.386     -15779.204    
     48300   302.73892     -38235.798      0             -37735.864     -16656.671    
     48350   300.26329     -38214.171      0             -37718.325     -15695.855    
     48400   287.54538     -38198.188      0             -37723.345     -16763.755    
     48450   303.99263     -38215.002      0             -37712.998     -16088.249    
     48500   292.36209     -38207.521      0             -37724.724     -15318.908    
     48550   304.63473     -38237.624      0             -37734.56      -16068.313    
     48600   288.24762     -38208.467      0             -37732.464     -15089.949    
     48650   303.0034      -38202.75       0             -37702.38      -15667.187    
     48700   293.865       -38224.211      0             -37738.931     -15315.553    
     48750   298.77264     -38218.825      0             -37725.441     -15811.677    
     48800   299.7092      -38190.62       0             -37695.689     -15187.57     
     48850   292.00539     -38202.462      0             -37720.253     -16708.17     
     48900   300.45359     -38214.22       0             -37718.06      -15489.774    
     48950   293.16032     -38199.754      0             -37715.638     -16243.386    
     49000   305.95531     -38209.845      0             -37704.6       -15265.966    
     49050   300.11028     -38185.913      0             -37690.32      -16015.808    
     49100   302.89707     -38207.612      0             -37707.417     -15063.289    
     49150   316.18153     -38245.177      0             -37723.045     -16115.848    
     49200   298.86486     -38208.232      0             -37714.695     -14850.253    
     49250   304.1394      -38224.011      0             -37721.765     -16816.35     
     49300   311.67324     -38216.631      0             -37701.944     -14540.289    
     49350   304.39691     -38207.898      0             -37705.227     -17362.273    
     49400   288.36494     -38180.372      0             -37704.176     -14855.841    
     49450   306.54915     -38223.599      0             -37717.373     -17252.526    
     49500   304.20741     -38214.741      0             -37712.383     -14642.39     
     49550   309.3078      -38223.508      0             -37712.726     -17545.475    
     49600   300.88006     -38176.222      0             -37679.359     -14329.029    
     49650   302.0496      -38202.335      0             -37703.54      -16804.991    
     49700   292.86104     -38174.932      0             -37691.311     -15061.679    
     49750   299.92696     -38194.511      0             -37699.221     -16989.558    
     49800   316.40223     -38226.912      0             -37704.415     -15253.34     
     49850   293.3298      -38209.373      0             -37724.977     -17412.853    
     49900   311.30184     -38238.221      0             -37724.147     -15096.218    
     49950   306.63499     -38201.731      0             -37695.364     -16547.482    
     50000   292.38496     -38200.329      0             -37717.494     -15779.312    
     50050   288.75173     -38199.182      0             -37722.346     -16113.096    
     50100   299.82863     -38219.655      0             -37724.527     -15482.311    
     50150   298.54834     -38229.165      0             -37736.151     -16914.823    
     50200   304.09194     -38207.99       0             -37705.822     -16341.192    
     50250   301.90598     -38205.774      0             -37707.216     -16987.069    
     50300   296.59256     -38179.714      0             -37689.93      -16052.957    
     50350   300.19124     -38205.302      0             -37709.576     -16032.229    
     50400   302.60883     -38217.512      0             -37717.793     -17057.23     
     50450   306.29677     -38184.266      0             -37678.457     -15911.993    
     50500   311.80651     -38209.518      0             -37694.611     -16423.012    
     50550   285.65694     -38145.835      0             -37674.11      -14941.206    
     50600   301.52262     -38207.183      0             -37709.258     -16135.267    
     50650   296.91431     -38221.658      0             -37731.343     -15737.762    
     50700   296.08287     -38201.753      0             -37712.811     -16007.486    
     50750   287.83832     -38194.998      0             -37719.671     -14912.894    
     50800   305.42325     -38219.247      0             -37714.881     -17003.966    
     50850   290.44274     -38196.119      0             -37716.49      -14771.774    
     50900   286.39738     -38154.498      0             -37681.55      -16764.996    
     50950   304.51728     -38202.843      0             -37699.973     -15122.349    
     51000   306.98695     -38224.236      0             -37717.288     -16679.071    
     51050   305.78652     -38227.852      0             -37722.886     -15333.099    
     51100   314.87796     -38237.556      0             -37717.577     -16355.166    
     51150   286.62336     -38195.118      0             -37721.797     -14726.096    
     51200   286.77968     -38182.437      0             -37708.858     -16197.095    
     51250   285.91441     -38196.955      0             -37724.805     -15733.623    
     51300   302.29935     -38180.372      0             -37681.165     -16877.715    
     51350   306.8295      -38206.205      0             -37699.516     -15038.503    
     51400   308.3884      -38220.264      0             -37711.001     -17536.78     
     51450   291.3915      -38162.222      0             -37681.027     -15074.69     
     51500   291.83943     -38197.015      0             -37715.08      -16944.956    
     51550   299.31676     -38198.128      0             -37703.846     -15400.061    
     51600   301.99956     -38189.394      0             -37690.681     -17155.352    
     51650   301.63655     -38194.327      0             -37696.214     -16015.21     
     51700   287.83453     -38187.672      0             -37712.351     -17178.435    
     51750   291.08403     -38169.036      0             -37688.349     -15774.846    
     51800   307.52419     -38210.302      0             -37702.466     -16424.322    
     51850   308.852       -38193.464      0             -37683.436     -15920.52     
     51900   312.67821     -38215.913      0             -37699.566     -16189.987    
     51950   295.87008     -38195.37       0             -37706.779     -15565.441    
     52000   289.53093     -38180.369      0             -37702.247     -15292.86     
     52050   302.1727      -38204.104      0             -37705.105     -16422.17     
     52100   295.00017     -38178.015      0             -37690.861     -15751.174    
     52150   287.99053     -38168.764      0             -37693.186     -16457.352    
     52200   293.66273     -38162.853      0             -37677.908     -16213.834    
     52250   292.31885     -38160.264      0             -37677.538     -16292.566    
     52300   298.97647     -38172.297      0             -37678.577     -15604.321    
     52350   302.66762     -38189.908      0             -37690.092     -16041.829    
     52400   301.81096     -38192.005      0             -37693.604     -15801.899    
     52450   285.87893     -38132.184      0             -37660.092     -15944.241    
     52500   292.82962     -38159.562      0             -37675.992     -15965.039    
     52550   306.82903     -38191.887      0             -37685.199     -15824.416    
     52600   288.64113     -38163.149      0             -37686.496     -15760.15     
     52650   299.44132     -38197.457      0             -37702.969     -15884.95     
     52700   288.64452     -38164.588      0             -37687.929     -16937.276    
     52750   298.32653     -38175.862      0             -37683.215     -16331.77     
     52800   293.7186      -38151.349      0             -37666.311     -16564.121    
     52850   290.05723     -38183.866      0             -37704.875     -15766.137    
     52900   295.01074     -38168.868      0             -37681.697     -17145.329    
     52950   305.44495     -38193.447      0             -37689.045     -15760.022    
     53000   297.95467     -38176.637      0             -37684.604     -17148.421    
     53050   306.39283     -38183.205      0             -37677.237     -15116.034    
     53100   303.92943     -38193.331      0             -37691.432     -16890.216    
     53150   292.78383     -38162.712      0             -37679.217     -15132.019    
     53200   315.20622     -38204          0             -37683.478     -15966.417    
     53250   311.20087     -38216.285      0             -37702.377     -16155.13     
     53300   316.96419     -38225.799      0             -37702.374     -16352.028    
     53350   286.11599     -38182.257      0             -37709.774     -15811.064    
     53400   290.05195     -38174.718      0             -37695.736     -16352.97     
     53450   295.62241     -38220.211      0             -37732.029     -16853.147    
     53500   294.38977     -38172.562      0             -37686.416     -16554.739    
     53550   292.41872     -38170.59       0             -37687.699     -16186.611    
     53600   287.98546     -38134.869      0             -37659.298     -16220.467    
     53650   290.99048     -38142.829      0             -37662.297     -15645.335    
     53700   296.61738     -38181.604      0             -37691.779     -17531.655    
     53750   296.76176     -38173.3        0             -37683.237     -15506.739    
     53800   309.33393     -38203.729      0             -37692.905     -17441.102    
     53850   299.86834     -38168.585      0             -37673.392     -15957.356    
     53900   298.36611     -38178.307      0             -37685.595     -17381.108    
     53950   307.50934     -38211.444      0             -37703.633     -15720.357    
     54000   294.04827     -38170.302      0             -37684.719     -15395.559    
     54050   298.63516     -38181.454      0             -37688.297     -15890.037    
     54100   300.38636     -38208.656      0             -37712.608     -16435.022    
     54150   294.02875     -38175.078      0             -37689.528     -16426.435    
     54200   310.62613     -38205.565      0             -37692.607     -15372.131    
     54250   289.66307     -38186.061      0             -37707.721     -16080.191    
     54300   292.09972     -38173.251      0             -37690.887     -14862.5      
     54350   300.97401     -38186.013      0             -37688.993     -15682.451    
     54400   280.46616     -38132.455      0             -37669.302     -15023.178    
     54450   292.28437     -38150.469      0             -37667.799     -15506.985    
     54500   300.15862     -38163.963      0             -37668.29      -15469.968    
     54550   302.74308     -38166.744      0             -37666.803     -15821.542    
     54600   310.31866     -38185.245      0             -37672.794     -15425.71     
     54650   313.10236     -38187.427      0             -37670.38      -16014.903    
     54700   304.01771     -38184.743      0             -37682.698     -15361.922    
     54750   293.88276     -38179.11       0             -37693.801     -15911.978    
     54800   299.61034     -38194.817      0             -37700.049     -14944.502    
     54850   295.3089      -38194.174      0             -37706.51      -16842.856    
     54900   298.0152      -38208.024      0             -37715.891     -15968.848    
     54950   295.42372     -38190.759      0             -37702.906     -16564.113    
     55000   301.20949     -38175.487      0             -37678.08      -15722.202    
     55050   298.79805     -38171.894      0             -37678.468     -16431.033    
     55100   286.96796     -38140.846      0             -37666.956     -14552.754    
     55150   285.4705      -38150.219      0             -37678.802     -16297.313    
     55200   299.04908     -38200.094      0             -37706.253     -15111.546    
     55250   319.89765     -38207.332      0             -37679.063     -16855.167    
     55300   300.48008     -38165.03       0             -37668.826     -14875.632    
     55350   304.84449     -38172.428      0             -37669.017     -17124.193    
     55400   297.99258     -38182.198      0             -37690.102     -15060.594    
     55450   298.7897      -38154.59       0             -37661.178     -16978.087    
     55500   301.79741     -38185.951      0             -37687.572     -15066.898    
     55550   288.33511     -38157.504      0             -37681.357     -17245.077    
     55600   284.52057     -38161.324      0             -37691.476     -15581.058    
     55650   302.18754     -38157.175      0             -37658.152     -17396.043    
     55700   301.10204     -38189.951      0             -37692.72      -16126.234    
     55750   303.98631     -38202.115      0             -37700.121     -17628.728    
     55800   283.68995     -38130.092      0             -37661.615     -15571.063    
     55850   294.74397     -38148.326      0             -37661.595     -17546.073    
     55900   300.19634     -38160.226      0             -37664.491     -16726.937    
     55950   294.57477     -38150.987      0             -37664.535     -16709.593    
     56000   301.7982      -38186.617      0             -37688.237     -17027.649    
     56050   300.14366     -38171.365      0             -37675.717     -16190.764    
     56100   292.79461     -38153.447      0             -37669.935     -16287.027    
     56150   296.40424     -38170.085      0             -37680.612     -16073.458    
     56200   309.72149     -38154.371      0             -37642.907     -17104.028    
     56250   317.42965     -38188.269      0             -37664.075     -15098.575    
     56300   306.12419     -38179.445      0             -37673.921     -17580.191    
     56350   301.5352      -38174.657      0             -37676.711     -15575.721    
     56400   305.91556     -38183.848      0             -37678.668     -17781.768    
     56450   310.78075     -38230.052      0             -37716.838     -15268.03     
     56500   298.50194     -38184.477      0             -37691.54      -17577.575    
     56550   300.57982     -38203.804      0             -37707.436     -15573.248    
     56600   289.2059      -38155.672      0             -37678.087     -17772.196    
     56650   303.92279     -38192.344      0             -37690.456     -14618.396    
     56700   309.38847     -38203.932      0             -37693.018     -16653.561    
     56750   302.64374     -38203.099      0             -37703.322     -14105.029    
     56800   290.50091     -38201.921      0             -37722.196     -17589.499    
     56850   299.64588     -38226.084      0             -37731.258     -14558.346    
     56900   295.36965     -38211.098      0             -37723.334     -17724.444    
     56950   293.62988     -38200.348      0             -37715.457     -14962.194    
     57000   311.7324      -38194.964      0             -37680.179     -17925.34     
     57050   298.20738     -38207.177      0             -37714.727     -15056.849    
     57100   306.38637     -38209.672      0             -37703.715     -16740.573    
     57150   305.35089     -38209.76       0             -37705.514     -15167.919    
     57200   306.3391      -38191.229      0             -37685.35      -15326.627    
     57250   312.02819     -38226.899      0             -37711.625     -15254.139    
     57300   306.29131     -38220.855      0             -37715.055     -15640.157    
     57350   297.0486      -38185.2        0             -37694.664     -16168.068    
     57400   292.65558     -38194.413      0             -37711.13      -15847.104    
     57450   295.71907     -38204.996      0             -37716.655     -17227.622    
     57500   291.00376     -38181.883      0             -37701.328     -14273.388    
     57550   300.3028      -38207.863      0             -37711.953     -16631.201    
     57600   299.45119     -38192.469      0             -37697.964     -15184.488    
     57650   287.31405     -38172.217      0             -37697.756     -16349.882    
     57700   290.98388     -38184.01       0             -37703.488     -15287.235    
     57750   301.73629     -38185.769      0             -37687.491     -16663.759    
     57800   301.20994     -38195.138      0             -37697.729     -15755.862    
     57850   296.94563     -38197.446      0             -37707.079     -15794.48     
     57900   303.06136     -38213.116      0             -37712.65      -15641.097    
     57950   297.20539     -38209.157      0             -37718.361     -16675.987    
     58000   307.12888     -38190.681      0             -37683.498     -15581.799    
     58050   316.75825     -38238.045      0             -37714.96      -16946.622    
     58100   296.15218     -38194.309      0             -37705.253     -15660.213    
     58150   291.15475     -38171.132      0             -37690.329     -16682.337    
     58200   309.13663     -38227.155      0             -37716.657     -16156.919    
     58250   300.09391     -38192.117      0             -37696.551     -16961.739    
     58300   305.31017     -38198.774      0             -37694.594     -15718.506    
     58350   298.9064      -38162.168      0             -37668.563     -16655.51     
     58400   287.0932      -38173.508      0             -37699.411     -15818.79     
     58450   296.44546     -38145.891      0             -37656.351     -16017.791    
     58500   303.0097      -38204.776      0             -37704.396     -15231.482    
     58550   302.45025     -38182.704      0             -37683.248     -16862.09     
     58600   291.91029     -38154.118      0             -37672.066     -15031.357    
     58650   306.31621     -38192.543      0             -37686.702     -17482.635    
     58700   298.27972     -38179.9        0             -37687.331     -15440.223    
     58750   299.03599     -38192.169      0             -37698.35      -17165.666    
     58800   309.36512     -38208.512      0             -37697.636     -16033.272    
     58850   286.97142     -38163.707      0             -37689.811     -17005.35     
     58900   297.39697     -38203.888      0             -37712.776     -15879.281    
     58950   303.4366      -38197.3        0             -37696.214     -16829.608    
     59000   305.22034     -38200.771      0             -37696.74      -15571.441    
     59050   307.77818     -38224.896      0             -37716.641     -17322.454    
     59100   293.70624     -38173.125      0             -37688.107     -15529.875    
     59150   303.37448     -38188.411      0             -37687.428     -17491.518    
     59200   314.24636     -38207.224      0             -37688.288     -15833.854    
     59250   275.28614     -38148.78       0             -37694.181     -16529.787    
     59300   298.0199      -38152.232      0             -37660.092     -15493.994    
     59350   298.81139     -38166.892      0             -37673.444     -16856.698    
     59400   313.23753     -38193.59       0             -37676.319     -15566.975    
     59450   312.37916     -38225.809      0             -37709.956     -16352.074    
     59500   303.09889     -38212.888      0             -37712.36      -15770.129    
     59550   301.05293     -38217.491      0             -37720.341     -16662.886    
     59600   291.32536     -38178.085      0             -37696.999     -15909.44     
     59650   299.47546     -38176.039      0             -37681.495     -15929.472    
     59700   291.6365      -38170.257      0             -37688.657     -16209.644    
     59750   307.78748     -38179.194      0             -37670.923     -15588.084    
     59800   297.00186     -38181.995      0             -37691.535     -16785.142    
     59850   295.55155     -38181.371      0             -37693.306     -16508.478    
     59900   294.93878     -38156.001      0             -37668.948     -15983.904    
     59950   296.16377     -38183.744      0             -37694.668     -15953.219    
     60000   293.83884     -38171.933      0             -37686.696     -15776.837    
     60050   297.38461     -38175.298      0             -37684.207     -16035.669    
     60100   305.13781     -38198.872      0             -37694.977     -15305.893    
     60150   295.35575     -38183.666      0             -37695.925     -16422.412    
     60200   296.76425     -38182.509      0             -37692.441     -15607.097    
     60250   290.55295     -38170.045      0             -37690.235     -16392.544    
     60300   284.32119     -38158.358      0             -37688.839     -15298.247    
     60350   291.75296     -38150.286      0             -37668.494     -16677.311    
     60400   311.82354     -38179.715      0             -37664.779     -15334.813    
     60450   302.47704     -38164.097      0             -37664.596     -16807.476    
     60500   283.72729     -38133.601      0             -37665.063     -15099.755    
     60550   297.38582     -38142.451      0             -37651.357     -16146.925    
     60600   307.6786      -38181.39       0             -37673.299     -14811.875    
     60650   298.86577     -38196.216      0             -37702.679     -16997.664    
     60700   293.73304     -38167.068      0             -37682.006     -14668.028    
     60750   302.10091     -38170.992      0             -37672.112     -17141.891    
     60800   289.28039     -38169.098      0             -37691.39      -14690.91     
     60850   323.08075     -38208.898      0             -37675.373     -16259.872    
     60900   295.05517     -38190.701      0             -37703.456     -14109.265    
     60950   295.93133     -38160.291      0             -37671.599     -16341.288    
     61000   297.28233     -38179.8        0             -37688.877     -14990.667    
     61050   300.18246     -38203.255      0             -37707.543     -16791.512    
     61100   307.63145     -38227.447      0             -37719.434     -14461.412    
     61150   307.37207     -38179.749      0             -37672.164     -15507.029    
     61200   297.41587     -38178.522      0             -37687.379     -14818.46     
     61250   304.4134      -38198.337      0             -37695.638     -16927.136    
     61300   287.44059     -38177.992      0             -37703.321     -13866.097    
     61350   315.74192     -38203.258      0             -37681.851     -16780.93     
     61400   302.94012     -38206.259      0             -37705.993     -14551.899    
     61450   304.49668     -38199.226      0             -37696.39      -16573.819    
     61500   315.16963     -38243.255      0             -37722.793     -14861.41     
     61550   302.39243     -38211.49       0             -37712.129     -16056.223    
     61600   291.27863     -38197.06       0             -37716.052     -14661.956    
     61650   308.98022     -38226.997      0             -37716.756     -16189.12     
     61700   296.71792     -38200.965      0             -37710.975     -15413.583    
     61750   309.52232     -38214.17       0             -37703.034     -16310.493    
     61800   297.16478     -38212.636      0             -37721.907     -15663.361    
     61850   304.33882     -38203.531      0             -37700.955     -16090.953    
     61900   297.32563     -38196.927      0             -37705.933     -15334.998    
     61950   298.07528     -38186.983      0             -37694.751     -16930.714    
     62000   297.37458     -38183.246      0             -37692.171     -15061.855    
     62050   305.52345     -38215.667      0             -37711.135     -16205.985    
     62100   297.64249     -38209.038      0             -37717.521     -15238.559    
     62150   309.23111     -38228.443      0             -37717.789     -16142.751    
     62200   286.14202     -38171.455      0             -37698.929     -15149.484    
     62250   302.9403      -38192.82       0             -37692.554     -16276.027    
     62300   302.86756     -38202.536      0             -37702.39      -15472.775    
     62350   289.34741     -38169.678      0             -37691.858     -15973.155    
     62400   302.38991     -38190.449      0             -37691.092     -15236.54     
     62450   303.18922     -38180.333      0             -37679.656     -16371.519    
     62500   286.2104      -38148.147      0             -37675.508     -15430.675    
     62550   315.16947     -38223.29       0             -37702.829     -17022.363    
     62600   299.63448     -38170.69       0             -37675.883     -14516.954    
     62650   298.6565      -38162.402      0             -37669.21      -16097.562    
     62700   311.24494     -38213.748      0             -37699.768     -15448.649    
     62750   298.32494     -38207.399      0             -37714.755     -16285.436    
     62800   302.46302     -38193.868      0             -37694.39      -15010.802    
     62850   305.52374     -38187.613      0             -37683.08      -16194.057    
     62900   307.62812     -38204.856      0             -37696.848     -15417.232    
     62950   292.36187     -38173.853      0             -37691.056     -16084.427    
     63000   291.05014     -38167.691      0             -37687.06      -15427.217    
     63050   302.54885     -38172.603      0             -37672.983     -16021.632    
     63100   286.6945      -38157.12       0             -37683.682     -15235.791    
     63150   302.1493      -38163.443      0             -37664.483     -15813.054    
     63200   299.58037     -38177.119      0             -37682.401     -15471.907    
     63250   289.74433     -38171.907      0             -37693.432     -16534.292    
     63300   292.97366     -38140.555      0             -37656.747     -15665.888    
     63350   307.80007     -38182.183      0             -37673.892     -16546.882    
     63400   298.17634     -38172.069      0             -37679.67      -16085.79     
     63450   295.13568     -38167.113      0             -37679.735     -16145.23     
     63500   298.0602      -38141.896      0             -37649.689     -16518.773    
     63550   298.46925     -38183.244      0             -37690.362     -16221.982    
     63600   289.86925     -38167.954      0             -37689.273     -16191.009    
     63650   293.46515     -38173.949      0             -37689.33      -16287.687    
     63700   300.39208     -38159.752      0             -37663.694     -16401.121    
     63750   295.53905     -38181.092      0             -37693.048     -16374.097    
     63800   300.76797     -38195.629      0             -37698.951     -15548.381    
     63850   309.99382     -38202.311      0             -37690.397     -15996.378    
     63900   301.62208     -38203.73       0             -37705.64      -16486.506    
     63950   297.43974     -38203.073      0             -37711.891     -16429.351    
     64000   289.75422     -38160.137      0             -37681.646     -16058.182    
     64050   308.44806     -38182.735      0             -37673.373     -16011.062    
     64100   308.48116     -38180.374      0             -37670.958     -16024.648    
     64150   296.59381     -38182.286      0             -37692.5       -15167.924    
     64200   309.54896     -38199.621      0             -37688.441     -16201.46     
     64250   302.86062     -38187.664      0             -37687.529     -15530.616    
     64300   295.40851     -38188.635      0             -37700.806     -16541.128    
     64350   293.9926      -38192.776      0             -37707.286     -15241.165    
     64400   291.03764     -38166.372      0             -37685.761     -16720.623    
     64450   308.35358     -38187.492      0             -37678.286     -15258.517    
     64500   283.76712     -38162.148      0             -37693.544     -16245.034    
     64550   291.49052     -38179.154      0             -37697.796     -16169.452    
     64600   310.35954     -38200.048      0             -37687.529     -16972.232    
     64650   293.68289     -38187.444      0             -37702.466     -16307.878    
     64700   289.75962     -38168.102      0             -37689.602     -16789.094    
     64750   306.18833     -38196.389      0             -37690.76      -15592.346    
     64800   303.59416     -38199.033      0             -37697.687     -16167.833    
     64850   294.5574      -38199.844      0             -37713.421     -16061.131    
     64900   301.70766     -38177.161      0             -37678.93      -14896.954    
     64950   315.88531     -38191.317      0             -37669.674     -17067.311    
     65000   295.64394     -38155.1        0             -37666.883     -14993.574    
     65050   299.51581     -38199.283      0             -37704.672     -17034.529    
     65100   301.56746     -38185.536      0             -37687.537     -14783.81     
     65150   307.67522     -38222.162      0             -37714.077     -17358.028    
     65200   299.81772     -38193.321      0             -37698.212     -15093.288    
     65250   307.9448      -38210.762      0             -37702.231     -17280.977    
     65300   311.18119     -38222.699      0             -37708.824     -14838.217    
     65350   307.71889     -38214.962      0             -37706.805     -17115.949    
     65400   285.29245     -38215.187      0             -37744.064     -15019.611    
     65450   297.04524     -38195.612      0             -37705.08      -16552.829    
     65500   312.52387     -38244.854      0             -37728.762     -15255.161    
     65550   304.99363     -38223.827      0             -37720.17      -17550.037    
     65600   292.37053     -38208.307      0             -37725.495     -15443.607    
     65650   287.72745     -38184.246      0             -37709.102     -15861.538    
     65700   289.46968     -38201.157      0             -37723.135     -15225.067    
     65750   301.59842     -38229.669      0             -37731.618     -16699.416    
     65800   297.92408     -38220.289      0             -37728.306     -15798.72     
     65850   296.87783     -38220.912      0             -37730.657     -16049.77     
     65900   300.40707     -38203.883      0             -37707.8       -15967.082    
     65950   295.33948     -38211.155      0             -37723.441     -15269.487    
     66000   299.99792     -38205.75       0             -37710.343     -16069.072    
     66050   290.47081     -38184.759      0             -37705.084     -15594.787    
     66100   300.41401     -38208.562      0             -37712.468     -17082.694    
     66150   297.74588     -38215.026      0             -37723.338     -15173.763    
     66200   311.44524     -38229.803      0             -37715.492     -17595.724    
     66250   304.51694     -38206.989      0             -37704.119     -15217.272    
     66300   298.82666     -38210.847      0             -37717.374     -17080.733    
     66350   303.87665     -38208.029      0             -37706.217     -15014.634    
     66400   316.03237     -38249.27       0             -37727.384     -16644.759    
     66450   312.1964      -38256.978      0             -37741.426     -15327.076    
     66500   294.65658     -38203.843      0             -37717.256     -16198.688    
     66550   295.18497     -38230.06       0             -37742.601     -15891.615    
     66600   293.88793     -38205.217      0             -37719.899     -16731.941    
     66650   299.79675     -38208.196      0             -37713.121     -15425.719    
     66700   297.57042     -38197.431      0             -37706.032     -16429.756    
     66750   303.02502     -38188.623      0             -37688.217     -15589.383    
     66800   305.68176     -38216.36       0             -37711.566     -16595.551    
     66850   296.66135     -38183.132      0             -37693.235     -16385.886    
     66900   299.00274     -38185.627      0             -37691.863     -16276.742    
     66950   287.78919     -38168.828      0             -37693.582     -16398.905    
     67000   297.61206     -38182.403      0             -37690.935     -15793.272    
     67050   296.23187     -38175.585      0             -37686.397     -16277.177    
     67100   296.11828     -38188.302      0             -37699.301     -16206.433    
     67150   301.43771     -38200.008      0             -37702.223     -16784.891    
     67200   301.15349     -38188.502      0             -37691.186     -15884.21     
     67250   297.53154     -38181.979      0             -37690.645     -16927.213    
     67300   299.76805     -38173.422      0             -37678.394     -16447.105    
     67350   300.95116     -38137.596      0             -37640.615     -15619.139    
     67400   311.48687     -38178.153      0             -37663.773     -15526.934    
     67450   294.51554     -38165.361      0             -37679.007     -16028.361    
     67500   319.0685      -38199.151      0             -37672.251     -16000.166    
     67550   309.76624     -38211.843      0             -37700.305     -16438.994    
     67600   298.01176     -38174.55       0             -37682.423     -15424.994    
     67650   301.72161     -38166.316      0             -37668.063     -15816.555    
     67700   294.0114      -38174.066      0             -37688.545     -15913.859    
     67750   291.34919     -38145.928      0             -37664.803     -15860.096    
     67800   292.23226     -38163.509      0             -37680.926     -16124.861    
     67850   296.59534     -38173.301      0             -37683.513     -16402.245    
     67900   303.44809     -38178.56       0             -37677.455     -15656.581    
     67950   292.79695     -38177.312      0             -37693.796     -16497.885    
     68000   291.69236     -38152.977      0             -37671.285     -15680.481    
     68050   286.85798     -38170.178      0             -37696.47      -16329.577    
     68100   302.08947     -38181.799      0             -37682.938     -16289.15     
     68150   309.59785     -38193.788      0             -37682.528     -16447.608    
     68200   297.60627     -38159.078      0             -37667.62      -16196.155    
     68250   299.70637     -38179.31       0             -37684.384     -15946.467    
     68300   306.05456     -38203.71       0             -37698.301     -16680.36     
     68350   301.80513     -38169.298      0             -37670.907     -15838.327    
     68400   298.31493     -38162.668      0             -37670.04      -16565.045    
     68450   306.47681     -38206.245      0             -37700.138     -15884.227    
     68500   309.16927     -38193.422      0             -37682.87      -16465.202    
     68550   310.99477     -38217.486      0             -37703.919     -16207.912    
     68600   296.02087     -38208.787      0             -37719.948     -16162.941    
     68650   286.0272      -38181.932      0             -37709.595     -15798.911    
     68700   282.44764     -38170.826      0             -37704.401     -15880.536    
     68750   290.59466     -38159.381      0             -37679.503     -15706.338    
     68800   305.85023     -38199.015      0             -37693.943     -16097.437    
     68850   303.55518     -38184.83       0             -37683.549     -15964.087    
     68900   289.35993     -38173.614      0             -37695.774     -14843.676    
     68950   289.36941     -38160.47       0             -37682.614     -15626.144    
     69000   300.24679     -38180.844      0             -37685.025     -15212.48     
     69050   292.94487     -38162.246      0             -37678.486     -16481.686    
     69100   294.86903     -38137.831      0             -37650.893     -14833.978    
     69150   293.46714     -38157.314      0             -37672.692     -16210.947    
     69200   290.8291      -38126.756      0             -37646.49      -15528.384    
     69250   300.44338     -38176.775      0             -37680.632     -16768.318    
     69300   298.79123     -38177.144      0             -37683.73      -14910.009    
     69350   301.2447      -38167.313      0             -37669.847     -16907.064    
     69400   305.16314     -38187.206      0             -37683.27      -15468.248    
     69450   291.67229     -38159.043      0             -37677.384     -17307.813    
     69500   306.93457     -38148.274      0             -37641.412     -14874.818    
     69550   303.9836      -38179.015      0             -37677.026     -17969.595    
     69600   309.24604     -38180.616      0             -37669.936     -15650.396    
     69650   292.61146     -38179.719      0             -37696.51      -18050.182    
     69700   308.72237     -38222.156      0             -37712.341     -15735.924    
     69750   287.54892     -38146.93       0             -37672.081     -17130.748    
     69800   307.04766     -38182.372      0             -37675.323     -15399.044    
     69850   288.17218     -38151.694      0             -37675.816     -17084.784    
     69900   293.5204      -38142.88       0             -37658.17      -15567.082    
     69950   306.97334     -38156.58       0             -37649.654     -17470.59     
     70000   301.65707     -38148.412      0             -37650.265     -14904.591    
     70050   301.59506     -38159.086      0             -37661.041     -16976.614    
     70100   295.43052     -38153.901      0             -37666.036     -15245.918    
     70150   291.69568     -38130.488      0             -37648.791     -17027.44     
     70200   302.03989     -38164.101      0             -37665.322     -15891.067    
     70250   302.9378      -38153.927      0             -37653.665     -17422.713    
     70300   306.88106     -38157.892      0             -37651.118     -16076.7      
     70350   312.02526     -38187.302      0             -37672.033     -16629.955    
     70400   311.45496     -38180.402      0             -37666.075     -16307.813    
     70450   300.41292     -38171.924      0             -37675.832     -16717.731    
     70500   306.69341     -38160.539      0             -37654.075     -16600.756    
     70550   296.16754     -38172.894      0             -37683.812     -16231.684    
     70600   288.01223     -38146.869      0             -37671.255     -17081.873    
     70650   299.16418     -38152.628      0             -37658.597     -16378.832    
     70700   306.47769     -38194.536      0             -37688.428     -17232.9      
     70750   286.80308     -38129.66       0             -37656.042     -15971.505    
     70800   303.89047     -38165.802      0             -37663.967     -16312.386    
     70850   307.08273     -38165.069      0             -37657.962     -15644.806    
     70900   291.75878     -38144.937      0             -37663.136     -16374.806    
     70950   312.08677     -38172.592      0             -37657.222     -15103.011    
     71000   300.2551      -38168.33       0             -37672.498     -16454.986    
     71050   313.40579     -38191.551      0             -37674.002     -14926.973    
     71100   289.30299     -38146.764      0             -37669.018     -16390.816    
     71150   307.29597     -38218.181      0             -37710.722     -15175.617    
     71200   294.3604      -38181.633      0             -37695.536     -17072.676    
     71250   288.91867     -38162.348      0             -37685.236     -14386.858    
     71300   296.17752     -38159.444      0             -37670.346     -17101.568    
     71350   298.1989      -38172.047      0             -37679.61      -14752.227    
     71400   305.85869     -38182.087      0             -37677.002     -17233.262    
     71450   307.42543     -38215.686      0             -37708.013     -14960.847    
     71500   293.14006     -38166.428      0             -37682.346     -16951.943    
     71550   291.96532     -38166.089      0             -37683.946     -14473.622    
     71600   305.51567     -38202.114      0             -37697.595     -16576.944    
     71650   314.68105     -38218.447      0             -37698.793     -14866.479    
     71700   313.54821     -38222.566      0             -37704.783     -16793.959    
     71750   300.9416      -38203.993      0             -37707.028     -14863.805    
     71800   297.84507     -38193.386      0             -37701.534     -17006.31     
     71850   292.40075     -38175.952      0             -37693.09      -15335.115    
     71900   283.21561     -38114.849      0             -37647.155     -15346.34     
     71950   308.25574     -38179.365      0             -37670.321     -15837.871    
     72000   307.16895     -38194.363      0             -37687.114     -16307.214    
     72050   293.75738     -38141.149      0             -37656.047     -16011.545    
     72100   282.71427     -38127.736      0             -37660.871     -16270.539    
     72150   287.46159     -38136.99       0             -37662.285     -16770.31     
     72200   294.06083     -38150.96       0             -37665.357     -16823.515    
     72250   293.58944     -38150.141      0             -37665.317     -16290.183    
     72300   302.6064      -38163.239      0             -37663.525     -15597.859    
     72350   304.95375     -38154.016      0             -37650.425     -17089.122    
     72400   309.07204     -38171.73       0             -37661.338     -15755.653    
     72450   297.6798      -38149.456      0             -37657.877     -16271.671    
     72500   303.16677     -38185.663      0             -37685.023     -16333.95     
     72550   289.27861     -38147.034      0             -37669.328     -16749.046    
     72600   300.63801     -38168.232      0             -37671.768     -16527.91     
     72650   306.8691      -38178.103      0             -37671.349     -17033.687    
     72700   303.2886      -38176.989      0             -37676.147     -16240.044    
     72750   296.60852     -38148.047      0             -37658.237     -17347.372    
     72800   296.63984     -38154.368      0             -37664.507     -16400.633    
     72850   307.87811     -38194.749      0             -37686.329     -18294.602    
     72900   302.26073     -38190.553      0             -37691.409     -16151.63     
     72950   291.87206     -38147.851      0             -37665.863     -17106.158    
     73000   307.01749     -38180.492      0             -37673.493     -15893.86     
     73050   310.89542     -38163.337      0             -37649.934     -17268.876    
     73100   293.28479     -38143.651      0             -37659.33      -15509.077    
     73150   285.53814     -38138.902      0             -37667.373     -16925.428    
     73200   300.47926     -38178.405      0             -37682.203     -15447.455    
     73250   291.69533     -38154.773      0             -37673.077     -18074.734    
     73300   295.52834     -38199.262      0             -37711.235     -15853.325    
     73350   308.29877     -38189.926      0             -37680.811     -17543.787    
     73400   289.82221     -38183.9        0             -37705.297     -15880.685    
     73450   295.50709     -38180.204      0             -37692.212     -17519.378    
     73500   299.97649     -38178.212      0             -37682.84      -15158.447    
     73550   307.58002     -38221.192      0             -37713.263     -17373.276    
     73600   299.7638      -38182.5        0             -37687.479     -16112.116    
     73650   284.48011     -38143.567      0             -37673.785     -16809.657    
     73700   294.89724     -38173.061      0             -37686.077     -16786.434    
     73750   295.00744     -38162.944      0             -37675.778     -16742.389    
     73800   289.31837     -38129.725      0             -37651.954     -17058.227    
     73850   300.51822     -38159.637      0             -37663.371     -16483.664    
     73900   311.90388     -38183.429      0             -37668.361     -16803.585    
     73950   301.68727     -38155.621      0             -37657.424     -15995.742    
     74000   307.12466     -38196.016      0             -37688.84      -17000.177    
     74050   291.24448     -38172.964      0             -37692.012     -16206.273    
     74100   293.02684     -38156.218      0             -37672.322     -16410.233    
     74150   289.69598     -38179.804      0             -37701.409     -16481.123    
     74200   294.75118     -38153.822      0             -37667.08      -15634.456    
     74250   305.69792     -38167.953      0             -37663.133     -15949.053    
     74300   294.50235     -38180.188      0             -37693.856     -15698.169    
     74350   302.12629     -38209.288      0             -37710.366     -16714.725    
     74400   305.72871     -38184.648      0             -37679.777     -16132.624    
     74450   293.64627     -38159.799      0             -37674.88      -17351.898    
     74500   298.35613     -38155.081      0             -37662.385     -15487.849    
     74550   310.46368     -38183.557      0             -37670.867     -16993.375    
     74600   304.53722     -38152.931      0             -37650.028     -15430.212    
     74650   290.32646     -38166.622      0             -37687.186     -17277.011    
     74700   300.6658      -38199.443      0             -37702.933     -16130.231    
     74750   310.58206     -38172.364      0             -37659.479     -17176.116    
     74800   285.14496     -38161.167      0             -37690.288     -16006.674    
     74850   302.15293     -38179.438      0             -37680.472     -16318.262    
     74900   293.52427     -38145.5        0             -37660.783     -15680.733    
     74950   299.67369     -38157.093      0             -37662.221     -16295.727    
     75000   294.1299      -38136.162      0             -37650.445     -15180.187    
     75050   306.34816     -38181.154      0             -37675.261     -16864.162    
     75100   315.96422     -38216.43       0             -37694.657     -16945.104    
     75150   294.46943     -38131.327      0             -37645.05      -16366.248    
     75200   306.91798     -38151.856      0             -37645.021     -15964.577    
     75250   290.01802     -38130.337      0             -37651.41      -16137.5      
     75300   297.11238     -38150.453      0             -37659.811     -15758.183    
     75350   307.46266     -38183.185      0             -37675.451     -16528.621    
     75400   301.05817     -38154.543      0             -37657.385     -15641.134    
     75450   295.55213     -38154.344      0             -37666.279     -16838.736    
     75500   299.46679     -38132.907      0             -37638.377     -16576.252    
     75550   297.14764     -38132.656      0             -37641.955     -16951.087    
     75600   301.41131     -38171.955      0             -37674.214     -16040.07     
     75650   301.13117     -38141.825      0             -37644.547     -16443.865    
     75700   317.3031      -38183.699      0             -37659.714     -16617.257    
     75750   310.20319     -38173.359      0             -37661.099     -17079.873    
     75800   297.86393     -38161.443      0             -37669.56      -16218.95     
     75850   308.92112     -38185.04       0             -37674.897     -16956.703    
     75900   294.4265      -38183.861      0             -37697.654     -16681.807    
     75950   299.04277     -38142.66       0             -37648.83      -16664.36     
     76000   288.75242     -38138.734      0             -37661.898     -16645.105    
     76050   307.9659      -38181.25       0             -37672.684     -16916.206    
     76100   308.40833     -38172.372      0             -37663.076     -16059.52     
     76150   302.46722     -38159.035      0             -37659.55      -15990.23     
     76200   292.76667     -38153.286      0             -37669.82      -16131.174    
     76250   302.49229     -38158.612      0             -37659.086     -15258.831    
     76300   285.25113     -38109.777      0             -37638.722     -16007.089    
     76350   306.44126     -38178.068      0             -37672.021     -15741.061    
     76400   292.77786     -38133.882      0             -37650.398     -16985.838    
     76450   300.6604      -38149.218      0             -37652.717     -16193.605    
     76500   302.09815     -38164.688      0             -37665.813     -17140.605    
     76550   300.04409     -38152.745      0             -37657.262     -16167.208    
     76600   302.44708     -38160.605      0             -37661.153     -17296.973    
     76650   302.37017     -38155.836      0             -37656.511     -16925.801    
     76700   296.57942     -38122.511      0             -37632.749     -16398.572    
     76750   293.70133     -38136.941      0             -37651.932     -16409.642    
     76800   317.29764     -38210.138      0             -37686.163     -17071.268    
     76850   292.6924      -38128.644      0             -37645.301     -15377.824    
     76900   308.02352     -38151.416      0             -37642.755     -16021.156    
     76950   289.35872     -38138.299      0             -37660.461     -15705.076    
     77000   309.34986     -38178.934      0             -37668.083     -16482.078    
     77050   298.82341     -38170.53       0             -37677.063     -16110.183    
     77100   286.08159     -38147.319      0             -37674.893     -15473.822    
     77150   284.93743     -38150.339      0             -37679.802     -16475.358    
     77200   310.84546     -38193.475      0             -37680.155     -15966.488    
     77250   287.30318     -38123.41       0             -37648.966     -15479.884    
     77300   295.59116     -38168.89       0             -37680.76      -15971.545    
     77350   303.58007     -38155.378      0             -37654.056     -15768.356    
     77400   301.76855     -38157.519      0             -37659.188     -15745.874    
     77450   296.96636     -38149.294      0             -37658.893     -15608.616    
     77500   296.80699     -38142.163      0             -37652.025     -15986.577    
     77550   283.99776     -38113.094      0             -37644.109     -15524.828    
     77600   294.33108     -38141.354      0             -37655.305     -16160.22     
     77650   302.21561     -38144.196      0             -37645.126     -16076.346    
     77700   295.27976     -38155.691      0             -37668.075     -16737.325    
     77750   296.45595     -38143.597      0             -37654.039     -15636.78     
     77800   305.26927     -38174.111      0             -37669.999     -15550.13     
     77850   297.35371     -38161.7        0             -37670.659     -15424.133    
     77900   319.58228     -38199.861      0             -37672.112     -15756.736    
     77950   297.55884     -38168.335      0             -37676.956     -15693.726    
     78000   311.18881     -38199.721      0             -37685.833     -15515.179    
     78050   297.24736     -38170.158      0             -37679.293     -16930.108    
     78100   295.89649     -38177.793      0             -37689.159     -14320.854    
     78150   307.90733     -38183.983      0             -37675.515     -17091.002    
     78200   291.04725     -38157.683      0             -37677.056     -15055.721    
     78250   306.36298     -38202.184      0             -37696.266     -17710.5      
     78300   312.46381     -38189.962      0             -37673.969     -14775.321    
     78350   296.72274     -38175.154      0             -37685.156     -17021.304    
     78400   294.8184      -38167.353      0             -37680.499     -14047.373    
     78450   290.05741     -38194.237      0             -37715.245     -17143.795    
     78500   301.92255     -38184.897      0             -37686.312     -14782.703    
     78550   299.99188     -38168.794      0             -37673.397     -17363.562    
     78600   299.2559      -38165.355      0             -37671.173     -14951.972    
     78650   306.36484     -38152.427      0             -37646.505     -16634.69     
     78700   318.78526     -38219.733      0             -37693.301     -15400.495    
     78750   307.15553     -38193.601      0             -37686.374     -16335.524    
     78800   300.64379     -38178.135      0             -37681.661     -15113.661    
     78850   304.46314     -38207.075      0             -37704.294     -17163.169    
     78900   302.08831     -38202.356      0             -37703.497     -15101.104    
     78950   292.52973     -38163.618      0             -37680.544     -16760.794    
     79000   284.97643     -38169.678      0             -37699.077     -14812.867    
     79050   301.73965     -38222.856      0             -37724.573     -18055.319    
     79100   303.37386     -38194.72       0             -37693.738     -15634.824    
     79150   285.91468     -38172.495      0             -37700.344     -17387.582    
     79200   314.93192     -38206.834      0             -37686.765     -15677.924    
     79250   294.53151     -38181.042      0             -37694.661     -16835.703    
     79300   304.31315     -38207.267      0             -37704.734     -15191.627    
     79350   295.32738     -38177.641      0             -37689.947     -17316.285    
     79400   299.03272     -38207.977      0             -37714.164     -15401.927    
     79450   286.28879     -38175.592      0             -37702.824     -18237.009    
     79500   297.50408     -38175.843      0             -37684.554     -14342.957    
     79550   296.03614     -38170.443      0             -37681.578     -17462.841    
     79600   295.3164      -38180.542      0             -37692.866     -15078.548    
     79650   306.3955      -38173.736      0             -37667.764     -17522.73     
     79700   301.61325     -38179.996      0             -37681.922     -15805.395    
     79750   295.46652     -38191.124      0             -37703.2       -17213.162    
     79800   287.87642     -38164.483      0             -37689.093     -15621.736    
     79850   295.07071     -38174.992      0             -37687.721     -16614.453    
     79900   290.3763      -38161.405      0             -37681.886     -15929.277    
     79950   307.39179     -38168.249      0             -37660.631     -16725.37     
     80000   292.45276     -38164.975      0             -37682.028     -15417.448    
     80050   303.59545     -38196.002      0             -37694.654     -16121.213    
     80100   292.16457     -38163.531      0             -37681.059     -15515.22     
     80150   296.94153     -38159.63       0             -37669.27      -16125.561    
     80200   298.6893      -38152.218      0             -37658.972     -16033.568    
     80250   304.42324     -38180.882      0             -37678.167     -16422.27     
     80300   295.89837     -38143.736      0             -37655.099     -15386.382    
     80350   303.05077     -38153.896      0             -37653.447     -16842.128    
     80400   299.15142     -38137.817      0             -37643.808     -15807.19     
     80450   294.37531     -38137.017      0             -37650.895     -16474.072    
     80500   301.77531     -38143.562      0             -37645.219     -16395.45     
     80550   301.4068      -38149.762      0             -37652.028     -15788.176    
     80600   290.59231     -38151.623      0             -37671.747     -17414.422    
     80650   317.04381     -38195.151      0             -37671.595     -16222.161    
     80700   301.8938      -38146.281      0             -37647.743     -16745.897    
     80750   294.93615     -38141.223      0             -37654.175     -16475.285    
     80800   289.02184     -38132.894      0             -37655.612     -16422.682    
     80850   298.33976     -38173.336      0             -37680.667     -16442.125    
     80900   305.57283     -38146.326      0             -37641.713     -17135.977    
     80950   293.50279     -38158.606      0             -37673.924     -16459.454    
     81000   300.05673     -38170.848      0             -37675.344     -16686.877    
     81050   282.09698     -38152.726      0             -37686.88      -15979.642    
     81100   293.16953     -38124.999      0             -37640.868     -16694.346    
     81150   302.62323     -38172.576      0             -37672.833     -16657.904    
     81200   303.11946     -38168.616      0             -37668.054     -16813.442    
     81250   288.60159     -38121.298      0             -37644.71      -14757.145    
     81300   304.6032      -38168.526      0             -37665.513     -16255.59     
     81350   307.61631     -38175.917      0             -37667.929     -15680.339    
     81400   311.51461     -38161.232      0             -37646.807     -15371.735    
     81450   301.41012     -38172.298      0             -37674.558     -15655.835    
     81500   302.64025     -38176.084      0             -37676.314     -15198.863    
     81550   306.95473     -38168.005      0             -37661.11      -15997.036    
     81600   290.26489     -38177.047      0             -37697.713     -15434.327    
     81650   312.75538     -38206.102      0             -37689.627     -16208.79     
     81700   308.73738     -38181.748      0             -37671.909     -15684.621    
     81750   309.79214     -38202.885      0             -37691.304     -16702.272    
     81800   294.36943     -38175.973      0             -37689.861     -15809.643    
     81850   298.09468     -38173.717      0             -37681.453     -16679.513    
     81900   309.51608     -38200.379      0             -37689.254     -15220.142    
     81950   305.37136     -38186.778      0             -37682.497     -16376.339    
     82000   304.98174     -38201.155      0             -37697.517     -15307.074    
     82050   301.1742      -38172.391      0             -37675.041     -16151.49     
     82100   281.83687     -38187.78       0             -37722.364     -15948.815    
     82150   300.35887     -38187.27       0             -37691.266     -17337.781    
     82200   295.75601     -38163.994      0             -37675.592     -14524.502    
     82250   302.53166     -38180.109      0             -37680.518     -17050.643    
     82300   308.91052     -38202.713      0             -37692.588     -14327.906    
     82350   296.44539     -38173.333      0             -37683.793     -16768.206    
     82400   299.58262     -38229.269      0             -37734.548     -15196.58     
     82450   288.31698     -38170.874      0             -37694.756     -17090.599    
     82500   299.82415     -38174.703      0             -37679.583     -15004.479    
     82550   298.71853     -38181.589      0             -37688.295     -17164.833    
     82600   307.94747     -38191.288      0             -37682.753     -14903.767    
     82650   306.66334     -38209.287      0             -37702.873     -17516.727    
     82700   298.34214     -38217.978      0             -37725.306     -15626.185    
     82750   305.39938     -38179.488      0             -37675.161     -16985.745    
     82800   302.59001     -38187.379      0             -37687.691     -15567.218    
     82850   291.16465     -38165.587      0             -37684.766     -17650.933    
     82900   282.33256     -38129.755      0             -37663.52      -14724.335    
     82950   302.44995     -38152.033      0             -37652.577     -16980.134    
     83000   308.61399     -38205.99       0             -37696.354     -16273.546    
     83050   293.61112     -38173.073      0             -37688.213     -17185.931    
     83100   306.30806     -38182.479      0             -37676.651     -15409.525    
     83150   298.0191      -38175.534      0             -37683.394     -16796.484    
     83200   304.24337     -38196.244      0             -37693.826     -14590.066    
     83250   300.27977     -38186.868      0             -37690.995     -16320.729    
     83300   286.76715     -38146.1        0             -37672.542     -14408.456    
     83350   299.61929     -38180.764      0             -37685.982     -16501.466    
     83400   288.03548     -38158.001      0             -37682.348     -15136.975    
     83450   299.48704     -38178.126      0             -37683.562     -16575.732    
     83500   297.94937     -38190.471      0             -37698.446     -16245.31     
     83550   298.17328     -38169.257      0             -37676.863     -16513.584    
     83600   291.9378      -38154.92       0             -37672.823     -15957.666    
     83650   301.04463     -38167.896      0             -37670.76      -15830.49     
     83700   299.35286     -38146.783      0             -37652.441     -16153.285    
     83750   300.88097     -38145.355      0             -37648.49      -16344.356    
     83800   306.65072     -38187.996      0             -37681.602     -16584.772    
     83850   311.08684     -38220.663      0             -37706.944     -15828.554    
     83900   302.94718     -38175.051      0             -37674.773     -15968.639    
     83950   305.75742     -38201.905      0             -37696.986     -15072.176    
     84000   298.1473      -38209.127      0             -37716.776     -17689.693    
     84050   291.10334     -38174.746      0             -37694.027     -15529.554    
     84100   301.32183     -38171.042      0             -37673.449     -17736.83     
     84150   303.89267     -38187.703      0             -37685.864     -14646.269    
     84200   294.7815      -38158.583      0             -37671.79      -16754.783    
     84250   291.61712     -38154.61       0             -37673.043     -14153.081    
     84300   298.99022     -38177.391      0             -37683.648     -16968.655    
     84350   312.22009     -38213.184      0             -37697.593     -14057.027    
     84400   298.22667     -38198.077      0             -37705.595     -17621.659    
     84450   303.53632     -38212.062      0             -37710.812     -13542.209    
     84500   291.58415     -38172.512      0             -37690.999     -17308.595    
     84550   304.02564     -38196.563      0             -37694.505     -14235.388    
     84600   298.63127     -38163.974      0             -37670.823     -17519.616    
     84650   293.47858     -38180.787      0             -37696.146     -14203.76     
     84700   296.37927     -38149.136      0             -37659.704     -17534.13     
     84750   300.15658     -38185.103      0             -37689.434     -13253.74     
     84800   313.89105     -38256.596      0             -37738.246     -19125.693    
     84850   299.99587     -38200.625      0             -37705.221     -13773.895    
     84900   306.44509     -38203.696      0             -37697.643     -17911.744    
     84950   293.15062     -38188.897      0             -37704.798     -13318.763    
     85000   286.75811     -38152.346      0             -37678.803     -17136.048    
     85050   317.10532     -38246.151      0             -37722.493     -13720.123    
     85100   294.51925     -38164.937      0             -37678.577     -16402.733    
     85150   298.25972     -38188.414      0             -37695.877     -13985.547    
     85200   291.89508     -38181.206      0             -37699.18      -17441.402    
     85250   302.22415     -38200.374      0             -37701.29      -15032.122    
     85300   307.47515     -38200.664      0             -37692.909     -17468.248    
     85350   292.62104     -38167.914      0             -37684.689     -14411.362    
     85400   295.4345      -38158.674      0             -37670.803     -17149.886    
     85450   295.13096     -38165.101      0             -37677.731     -14206.182    
     85500   285.02697     -38157.488      0             -37686.804     -17363.04     
     85550   291.98252     -38154.005      0             -37671.834     -15127.701    
     85600   284.5185      -38131.358      0             -37661.513     -16660.23     
     85650   308.7988      -38169.627      0             -37659.687     -16686.221    
     85700   316.98537     -38196.906      0             -37673.446     -17460.204    
     85750   283.99437     -38145.236      0             -37676.256     -16137.378    
     85800   299.67147     -38157.118      0             -37662.25      -16801.351    
     85850   294.26234     -38165.306      0             -37679.371     -15605.394    
     85900   306.72991     -38143.021      0             -37636.497     -16686.818    
     85950   288.09471     -38146.292      0             -37670.541     -16396.047    
     86000   286.30112     -38163.315      0             -37690.526     -16606.895    
     86050   302.52532     -38162.713      0             -37663.132     -17002.884    
     86100   309.99633     -38193.98       0             -37682.061     -15157.476    
     86150   302.93565     -38195.032      0             -37694.773     -16994.967    
     86200   304.5853      -38172.19       0             -37669.207     -14913.033    
     86250   299.16238     -38181.157      0             -37687.129     -16639.085    
     86300   293.89732     -38170.236      0             -37684.903     -15060.225    
     86350   305.63439     -38176.499      0             -37671.784     -16366.045    
     86400   298.81076     -38208.319      0             -37714.872     -15081.675    
     86450   291.33564     -38175.014      0             -37693.912     -17580.002    
     86500   305.37952     -38203.737      0             -37699.443     -14306.121    
     86550   316.81001     -38220.509      0             -37697.339     -18120.578    
     86600   292.32613     -38187.993      0             -37705.255     -14488.865    
     86650   310.65925     -38195.602      0             -37682.589     -17263.156    
     86700   313.02446     -38253.098      0             -37736.179     -15199.346    
     86750   307.66449     -38194.504      0             -37686.437     -17841.03     
     86800   299.88083     -38207.867      0             -37712.653     -14969.436    
     86850   300.34944     -38216.915      0             -37720.927     -18481.252    
     86900   291.59914     -38184.477      0             -37702.94      -14366.968    
     86950   290.7542      -38178.37       0             -37698.228     -17150.193    
     87000   289.24        -38200.969      0             -37723.328     -14340.216    
     87050   302.09651     -38247.821      0             -37748.949     -17442.572    
     87100   293.60597     -38188.029      0             -37703.177     -14038.07     
     87150   300.25547     -38189.844      0             -37694.011     -16852.164    
     87200   288.65955     -38189.192      0             -37712.509     -14908.656    
     87250   319.5358      -38228.713      0             -37701.042     -16507.012    
     87300   301.90874     -38233.437      0             -37734.874     -15667.723    
     87350   284.16041     -38182.845      0             -37713.592     -16131.996    
     87400   304.83951     -38200.089      0             -37696.686     -15472.27     
     87450   298.15486     -38183.739      0             -37691.376     -15718.126    
     87500   303.10657     -38237.411      0             -37736.87      -16668.546    
     87550   288.59383     -38200.755      0             -37724.18      -15659.586    
     87600   295.61177     -38199.257      0             -37711.093     -16467.926    
     87650   292.32502     -38178.454      0             -37695.717     -14670.603    
     87700   306.00535     -38180.532      0             -37675.204     -16083.83     
     87750   305.32999     -38210.157      0             -37705.945     -15223.944    
     87800   307.15384     -38203.225      0             -37696.001     -16566.992    
     87850   303.57715     -38195.002      0             -37693.684     -15294.768    
     87900   304.72971     -38212.063      0             -37708.842     -16352.637    
     87950   300.7593      -38200.228      0             -37703.563     -15175.708    
     88000   306.78835     -38219.796      0             -37713.175     -16689.239    
     88050   301.37465     -38187.83       0             -37690.149     -14990.307    
     88100   292.51961     -38183.006      0             -37699.948     -16867.751    
     88150   301.19062     -38200.674      0             -37703.298     -14975.34     
     88200   294.31661     -38197.642      0             -37711.617     -16421.412    
     88250   309.34099     -38228.196      0             -37717.36      -16103.275    
     88300   295.61817     -38198.175      0             -37710         -16853.756    
     88350   297.05385     -38181.003      0             -37690.457     -16523.056    
     88400   303.49278     -38226.871      0             -37725.692     -16162.592    
     88450   311.32865     -38249.96       0             -37735.842     -16360.885    
     88500   297.73279     -38200.021      0             -37708.354     -14542.136    
     88550   299.36226     -38225.094      0             -37730.736     -16305.421    
     88600   296.51865     -38190.568      0             -37700.906     -15332.084    
     88650   294.69481     -38202.158      0             -37715.508     -17151.383    
     88700   307.78966     -38247.458      0             -37739.184     -16144.224    
     88750   291.63808     -38202.927      0             -37721.325     -17791.49     
     88800   305.96854     -38205.314      0             -37700.047     -16367.424    
     88850   296.88416     -38205.604      0             -37715.338     -17335.914    
     88900   290.44138     -38196.072      0             -37716.447     -16763.312    
     88950   290.55291     -38138.706      0             -37658.896     -16892.295    
     89000   304.37938     -38171.54       0             -37668.898     -16091.011    
     89050   308.74526     -38188.58       0             -37678.728     -17995.393    
     89100   297.69957     -38156.567      0             -37664.955     -15065.73     
     89150   319.83578     -38210.612      0             -37682.446     -16827.333    
     89200   304.19282     -38219.351      0             -37717.016     -15747.248    
     89250   300.46003     -38197.933      0             -37701.763     -16632.995    
     89300   299.99557     -38222.311      0             -37726.908     -16282.458    
     89350   299.247       -38203.714      0             -37709.547     -17313.867    
     89400   297.81135     -38191.803      0             -37700.007     -15844.221    
     89450   293.20153     -38207.081      0             -37722.897     -16686.132    
     89500   294.0948      -38189.5        0             -37703.841     -16404.691    
     89550   307.37196     -38197.443      0             -37689.859     -16177.218    
     89600   301.0722      -38192.051      0             -37694.87      -15380.134    
     89650   317.82426     -38230.287      0             -37705.442     -16566.592    
     89700   327.89143     -38248.17       0             -37706.701     -14992.291    
     89750   290.23056     -38183.137      0             -37703.86      -16484.155    
     89800   298.12955     -38203.45       0             -37711.128     -15206.481    
     89850   297.6561      -38204.012      0             -37712.472     -16378.622    
     89900   308.78154     -38204.887      0             -37694.974     -15687.12     
     89950   313.31408     -38236.01       0             -37718.613     -16522.515    
     90000   293.14919     -38200.737      0             -37716.64      -15708.563    
     90050   300.60925     -38214.668      0             -37718.252     -15771.71     
     90100   307.88212     -38229.004      0             -37720.578     -16994.474    
     90150   299.013       -38212.184      0             -37718.403     -15072.247    
     90200   289.17389     -38200.722      0             -37723.189     -16579.588    
     90250   291.69477     -38213.265      0             -37731.569     -15110.301    
     90300   292.39541     -38180.607      0             -37697.754     -16576.784    
     90350   285.0939      -38175.616      0             -37704.821     -15207.367    
     90400   300.56279     -38191.55       0             -37695.21      -16937.99     
     90450   307.64246     -38221.224      0             -37713.193     -15614.311    
     90500   299.52674     -38173.358      0             -37678.729     -16831.116    
     90550   302.65537     -38210.308      0             -37710.512     -15122.997    
     90600   312.48311     -38230.633      0             -37714.608     -17006.093    
     90650   299.9552      -38205.128      0             -37709.791     -14632.471    
     90700   299.40969     -38207.437      0             -37713.001     -17262.873    
     90750   307.90329     -38240.776      0             -37732.314     -16078.295    
     90800   294.31065     -38200.387      0             -37714.372     -16821.595    
     90850   300.45536     -38206.461      0             -37710.298     -15332.878    
     90900   312.73114     -38221.216      0             -37704.781     -17714.197    
     90950   295.07999     -38209.923      0             -37722.637     -14982.417    
     91000   288.89288     -38185.847      0             -37708.778     -16963.011    
     91050   300.3304      -38199.939      0             -37703.982     -15477.779    
     91100   298.43945     -38227.199      0             -37734.365     -16471.397    
     91150   296.5884      -38211.52       0             -37721.744     -15592.635    
     91200   307.65066     -38213.726      0             -37705.681     -15828.947    
     91250   296.20622     -38201.95       0             -37712.804     -16014.919    
     91300   297.3438      -38196.275      0             -37705.251     -16206.109    
     91350   295.58063     -38182.902      0             -37694.789     -15638.876    
     91400   308.05786     -38228.286      0             -37719.569     -15798.61     
     91450   296.63083     -38212.649      0             -37722.802     -15786.386    
     91500   288.11978     -38171.657      0             -37695.865     -15482.481    
     91550   297.80835     -38180.677      0             -37688.885     -16267.514    
     91600   298.02473     -38212.503      0             -37720.354     -15333.172    
     91650   299.0778      -38183.555      0             -37689.667     -17138.282    
     91700   302.40015     -38180.853      0             -37681.479     -15135.058    
     91750   293.03947     -38152.141      0             -37668.225     -17122.878    
     91800   307.5317      -38199.229      0             -37691.381     -14860.065    
     91850   302.66557     -38174.306      0             -37674.493     -16808.649    
     91900   309.94866     -38215.479      0             -37703.64      -14565.393    
     91950   304.60894     -38177.178      0             -37674.157     -16770.579    
     92000   299.79673     -38191.356      0             -37696.281     -14584.929    
     92050   307.24302     -38209.916      0             -37702.545     -17420.76     
     92100   304.76933     -38172.02       0             -37668.734     -13935.055    
     92150   299.72167     -38190.448      0             -37695.497     -17007.847    
     92200   306.59654     -38233.861      0             -37727.557     -14632.976    
     92250   302.82998     -38206.907      0             -37706.823     -17647.33     
     92300   306.66071     -38214.519      0             -37708.109     -14488.173    
     92350   310.3687      -38208.503      0             -37695.97      -17318.853    
     92400   306.12588     -38236.768      0             -37731.242     -15331.941    
     92450   289.49299     -38158.671      0             -37680.612     -16842.573    
     92500   295.15715     -38197.384      0             -37709.971     -16019.404    
     92550   292.85497     -38165.915      0             -37682.304     -16992.456    
     92600   295.76997     -38179.186      0             -37690.76      -16148.51     
     92650   313.34938     -38220.49       0             -37703.035     -17778.284    
     92700   294.68288     -38186.157      0             -37699.527     -16050.909    
     92750   299.28279     -38199.059      0             -37704.833     -16556.043    
     92800   290.25578     -38184.639      0             -37705.32      -15735.34     
     92850   306.17998     -38158.552      0             -37652.936     -16506.778    
     92900   305.45629     -38206.354      0             -37701.933     -15737.88     
     92950   301.07696     -38189.449      0             -37692.26      -16761.47     
     93000   284.6513      -38177.26       0             -37707.196     -15884.046    
     93050   310.87976     -38196.722      0             -37683.344     -16831.091    
     93100   310.93501     -38213.459      0             -37699.991     -15938.688    
     93150   310.64309     -38240.795      0             -37727.809     -16008.365    
     93200   293.30598     -38206.051      0             -37721.695     -15871.056    
     93250   300.17008     -38204.214      0             -37708.523     -16031.087    
     93300   296.85039     -38185.74       0             -37695.531     -15826.109    
     93350   289.78981     -38184.134      0             -37705.584     -16137.918    
     93400   292.93747     -38199.777      0             -37716.029     -16995.771    
     93450   306.08316     -38204.883      0             -37699.427     -16380.501    
     93500   284.91795     -38171.743      0             -37701.238     -16969.618    
     93550   291.5439      -38197.081      0             -37715.634     -15962.473    
     93600   321.28507     -38217.655      0             -37687.095     -17018.224    
     93650   283.8358      -38161.243      0             -37692.525     -14841.174    
     93700   301.79087     -38198.452      0             -37700.084     -16489.985    
     93750   296.1805      -38217.337      0             -37728.233     -14360.925    
     93800   316.64575     -38229.756      0             -37706.857     -16769.28     
     93850   316.64738     -38250.588      0             -37727.687     -14579.215    
     93900   304.48736     -38216.958      0             -37714.137     -16347.806    
     93950   297.39903     -38199.981      0             -37708.865     -14857.909    
     94000   315.69934     -38222.174      0             -37700.838     -16670.9      
     94050   289.89957     -38184.556      0             -37705.825     -15909.128    
     94100   297.50583     -38207.918      0             -37716.627     -15530.396    
     94150   301.25298     -38227.163      0             -37729.683     -15931.167    
     94200   290.8922      -38200.518      0             -37720.148     -15619.122    
     94250   300.16235     -38222.328      0             -37726.649     -16185.097    
     94300   303.1009      -38203.913      0             -37703.382     -15289.971    
     94350   320.13054     -38222.147      0             -37693.494     -15225.411    
     94400   305.8021      -38228.977      0             -37723.985     -16337.116    
     94450   304.65242     -38201.897      0             -37698.803     -14685.808    
     94500   305.41866     -38219.517      0             -37715.158     -15988.213    
     94550   296.79252     -38196.237      0             -37706.123     -15052.017    
     94600   312.30855     -38218.769      0             -37703.032     -16816.723    
     94650   299.24927     -38214.272      0             -37720.102     -16089.88     
     94700   299.86735     -38220.696      0             -37725.504     -16391.381    
     94750   292.39821     -38186.582      0             -37703.725     -15432.451    
     94800   303.31613     -38224.804      0             -37723.918     -17646.256    
     94850   288.17131     -38191.723      0             -37715.846     -15709.052    
     94900   290.28847     -38176.788      0             -37697.415     -17865.154    
     94950   294.15352     -38201.031      0             -37715.275     -15871.839    
     95000   300.17387     -38195.335      0             -37699.638     -16785.581    
     95050   295.16771     -38185.555      0             -37698.124     -15455.412    
     95100   302.60721     -38191.526      0             -37691.81      -15968.632    
     95150   294.41454     -38164.959      0             -37678.772     -15654.984    
     95200   304.10637     -38185.86       0             -37683.668     -15802.662    
     95250   292.22631     -38185.79       0             -37703.217     -15840.759    
     95300   295.25316     -38203.303      0             -37715.732     -16563.644    
     95350   301.19185     -38197.644      0             -37700.265     -16275.364    
     95400   308.00974     -38195.602      0             -37686.964     -16512.513    
     95450   303.05203     -38181.588      0             -37681.138     -16219.774    
     95500   293.12317     -38169.455      0             -37685.4       -16556.931    
     95550   314.42526     -38212.407      0             -37693.175     -16143.68     
     95600   291.58742     -38197.929      0             -37716.411     -16523.782    
     95650   295.03459     -38200.525      0             -37713.314     -16134.165    
     95700   292.26572     -38172.182      0             -37689.544     -16719.458    
     95750   304.30242     -38204.603      0             -37702.087     -15872.134    
     95800   300.36363     -38205.078      0             -37709.067     -18066.714    
     95850   300.20665     -38200.025      0             -37704.273     -15526.258    
     95900   286.14706     -38142.674      0             -37670.14      -18153.387    
     95950   312.69406     -38198.732      0             -37682.359     -16012.299    
     96000   294.85744     -38177.59       0             -37690.672     -17848.59     
     96050   298.83684     -38207.781      0             -37714.291     -15173.076    
     96100   289.72175     -38150.28       0             -37671.843     -17438.143    
     96150   299.83318     -38191.943      0             -37696.807     -15325.12     
     96200   286.90149     -38180.722      0             -37706.942     -18389.495    
     96250   300.38921     -38184.619      0             -37688.565     -15032.548    
     96300   302.36725     -38157.819      0             -37658.499     -16741.525    
     96350   298.26069     -38178.764      0             -37686.225     -14650.804    
     96400   298.87907     -38169.492      0             -37675.933     -17082.803    
     96450   310.23831     -38212.752      0             -37700.434     -15389.49     
     96500   296.14491     -38195.169      0             -37706.124     -17027.372    
     96550   309.35304     -38203.625      0             -37692.769     -15468.556    
     96600   305.61492     -38167.763      0             -37663.08      -17109.634    
     96650   304.06357     -38200.261      0             -37698.14      -15395.629    
     96700   291.45291     -38170.731      0             -37689.434     -16840.147    
     96750   289.91248     -38167.984      0             -37689.232     -15552.884    
     96800   303.98041     -38205.116      0             -37703.132     -16298.158    
     96850   304.34737     -38189.439      0             -37686.849     -15735.77     
     96900   294.97827     -38170.051      0             -37682.934     -16036.974    
     96950   306.70713     -38182.618      0             -37676.131     -15553.751    
     97000   296.28382     -38174.946      0             -37685.672     -16226.817    
     97050   299.79526     -38177.104      0             -37682.032     -15459.736    
     97100   287.97231     -38159.899      0             -37684.351     -15811.56     
     97150   288.43403     -38186.72       0             -37710.409     -16585.374    
     97200   301.36557     -38184.51       0             -37686.844     -15817.602    
     97250   308.74429     -38187.962      0             -37678.111     -16703.737    
     97300   302.69274     -38174.301      0             -37674.443     -15562.903    
     97350   301.22891     -38183.253      0             -37685.813     -16716.135    
     97400   319.27114     -38185.836      0             -37658.602     -15546.787    
     97450   285.58581     -38158.422      0             -37686.814     -16255.612    
     97500   301.82996     -38160.43       0             -37661.997     -13857.748    
     97550   309.16479     -38211.524      0             -37700.979     -16966.138    
     97600   318.06841     -38209.765      0             -37684.516     -14884.363    
     97650   305.14879     -38206.313      0             -37702.4       -16687.647    
     97700   295.22352     -38174.243      0             -37686.72      -15272.823    
     97750   300.35291     -38192.248      0             -37696.254     -15715.829    
     97800   302.53979     -38176.661      0             -37677.056     -14982.453    
     97850   286.34683     -38146.617      0             -37673.753     -15353.744    
     97900   309.8803      -38202.453      0             -37690.726     -15725.398    
     97950   300.80322     -38178.244      0             -37681.507     -15836.438    
     98000   294.7091      -38160.717      0             -37674.043     -16651.56     
     98050   302.793       -38171.809      0             -37671.786     -16568.126    
     98100   295.09527     -38158.768      0             -37671.457     -15934.176    
     98150   297.99634     -38187.254      0             -37695.152     -16731.024    
     98200   304.813       -38175.192      0             -37671.833     -14727.332    
     98250   303.74956     -38182.977      0             -37681.375     -16448.492    
     98300   286.79259     -38152.888      0             -37679.287     -15711.494    
     98350   299.57478     -38168.971      0             -37674.263     -16771.519    
     98400   300.07385     -38206.075      0             -37710.543     -16190.762    
     98450   310.85185     -38212.503      0             -37699.172     -16517.92     
     98500   304.19283     -38193.364      0             -37691.029     -16091.973    
     98550   300.69527     -38186.631      0             -37690.072     -16760.759    
     98600   294.59396     -38170.424      0             -37683.941     -16800.822    
     98650   297.76619     -38167.431      0             -37675.709     -15779.061    
     98700   312.92052     -38180.209      0             -37663.462     -16810.032    
     98750   292.39097     -38175.951      0             -37693.106     -15991.032    
     98800   291.42372     -38157.875      0             -37676.627     -16914.277    
     98850   309.16377     -38179.348      0             -37668.805     -15969.461    
     98900   305.20515     -38203.876      0             -37699.87      -18282.911    
     98950   300.58242     -38186.805      0             -37690.432     -16056.009    
     99000   315.95466     -38209.946      0             -37688.189     -17497.854    
     99050   297.40116     -38175.423      0             -37684.304     -15336.648    
     99100   298.75295     -38167.506      0             -37674.155     -17405.989    
     99150   306.35505     -38207.489      0             -37701.584     -15680.374    
     99200   295.16088     -38178.105      0             -37690.685     -17701.847    
     99250   298.72127     -38191.754      0             -37698.455     -15298.263    
     99300   310.48586     -38189.276      0             -37676.549     -17554.296    
     99350   303.20776     -38186.372      0             -37685.664     -14545.208    
     99400   292.34132     -38166.747      0             -37683.984     -18182.381    
     99450   309.09624     -38196.829      0             -37686.398     -15201.738    
     99500   304.7114      -38186.52       0             -37683.329     -17700.223    
     99550   293.28562     -38164.359      0             -37680.037     -15379.433    
     99600   305.25582     -38175.007      0             -37670.917     -16766.983    
     99650   304.62273     -38173.798      0             -37670.754     -15344.854    
     99700   308.71238     -38215.756      0             -37705.958     -17081.076    
     99750   307.95632     -38209.402      0             -37700.853     -16222.943    
     99800   316.67796     -38206.105      0             -37683.152     -17066.4      
     99850   298.67788     -38195.663      0             -37702.436     -15789.356    
     99900   307.08426     -38198.205      0             -37691.095     -16315.649    
     99950   303.08012     -38200.927      0             -37700.43      -15594.066    
    100000   314.1978      -38219.364      0             -37700.508     -17027.94     
    100050   290.58748     -38174.976      0             -37695.109     -16080.795    
    100100   298.41887     -38197.347      0             -37704.547     -16878.527    
    100150   291.59916     -38197.429      0             -37715.891     -16917.652    
    100200   299.93845     -38202.252      0             -37706.943     -17168.64     
    100250   298.99394     -38215.717      0             -37721.968     -16147.261    
    100300   308.61051     -38219.762      0             -37710.133     -15739.482    
    100350   296.15151     -38178.842      0             -37689.786     -15438.433    
    100400   299.53587     -38184.69       0             -37690.046     -15275.067    
    100450   302.14154     -38179.244      0             -37680.297     -15842.212    
    100500   307.72411     -38224.894      0             -37716.728     -16002.03     
    100550   286.23153     -38184.251      0             -37711.578     -15684.526    
    100600   293.93139     -38188.645      0             -37703.256     -16256.6      
    100650   294.95552     -38178.196      0             -37691.116     -15436.042    
    100700   304.49099     -38218.798      0             -37715.971     -16711.262    
    100750   297.81186     -38211.127      0             -37719.329     -14752.459    
    100800   310.32159     -38237.68       0             -37725.224     -16160.945    
    100850   291.87171     -38208.427      0             -37726.439     -15986.226    
    100900   300.08287     -38215.868      0             -37720.321     -15813.772    
    100950   304.27474     -38224.088      0             -37721.618     -15284.631    
    101000   317.88374     -38271.979      0             -37747.036     -15100.824    
    101050   321.85796     -38290.45       0             -37758.944     -15598.312    
    101100   290.97881     -38218.54       0             -37738.027     -15114.46     
    101150   301.76194     -38220.742      0             -37722.422     -15109.064    
    101200   288.69293     -38209.099      0             -37732.36      -16278.58     
    101250   299.40528     -38230.327      0             -37735.899     -15339.414    
    101300   314.19087     -38266.597      0             -37747.752     -15576.265    
    101350   298.03319     -38237.727      0             -37745.564     -15081.948    
    101400   307.90923     -38242.466      0             -37733.994     -15635.798    
    101450   294.87328     -38230.996      0             -37744.052     -15316.027    
    101500   290.25122     -38214.399      0             -37735.087     -15703.261    
    101550   304.9012      -38225.399      0             -37721.895     -15679.45     
    101600   289.68798     -38200.392      0             -37722.01      -15358.008    
    101650   292.44635     -38217.615      0             -37734.678     -15970.64     
    101700   298.87277     -38211.74       0             -37718.191     -16173.112    
    101750   296.33894     -38204.396      0             -37715.032     -15500.409    
    101800   317.20725     -38257.344      0             -37733.517     -17231.91     
    101850   302.52231     -38223.299      0             -37723.723     -15461.953    
    101900   309.93426     -38218.568      0             -37706.753     -17009.124    
    101950   298.15281     -38206.904      0             -37714.544     -15737.487    
    102000   293.98305     -38209.362      0             -37723.888     -15919.262    
    102050   310.74065     -38237.279      0             -37724.131     -15622.557    
    102100   298.59563     -38235.827      0             -37742.736     -16652.381    
    102150   280.97607     -38194.738      0             -37730.743     -14802.718    
    102200   303.96763     -38217.501      0             -37715.538     -16400.295    
    102250   303.52541     -38255.757      0             -37754.525     -16170.22     
    102300   295.6766      -38220.756      0             -37732.484     -17112.304    
    102350   280.83304     -38179.765      0             -37716.006     -16196.587    
    102400   292.50143     -38152.977      0             -37669.949     -16409.691    
    102450   296.24138     -38197.583      0             -37708.379     -16440.707    
    102500   300.77041     -38190.054      0             -37693.371     -17020.36     
    102550   304.5742      -38196.757      0             -37693.793     -16114.545    
    102600   309.78521     -38212.178      0             -37700.608     -15966.647    
    102650   299.66136     -38191.932      0             -37697.08      -15903.586    
    102700   311.96627     -38228.942      0             -37713.771     -16614.042    
    102750   295.35268     -38205.689      0             -37717.953     -16366.614    
    102800   278.30748     -38139.503      0             -37679.915     -16785.724    
    102850   286.87815     -38167.794      0             -37694.052     -17037.707    
    102900   294.65488     -38163.086      0             -37676.502     -16138.338    
    102950   304.51561     -38196.997      0             -37694.13      -17032.638    
    103000   315.23631     -38209.096      0             -37688.525     -17002.049    
    103050   290.31001     -38168.017      0             -37688.608     -17031.116    
    103100   295.47753     -38171.264      0             -37683.322     -15525.711    
    103150   292.00073     -38144.456      0             -37662.255     -16411.661    
    103200   301.3273      -38170.172      0             -37672.57      -15265.112    
    103250   303.69661     -38198.127      0             -37696.612     -16232.071    
    103300   316.80911     -38212.771      0             -37689.603     -15422.16     
    103350   307.7702      -38210.5        0             -37702.258     -15977.268    
    103400   301.30505     -38191.722      0             -37694.156     -15515.77     
    103450   300.61529     -38187.286      0             -37690.859     -16582.704    
    103500   300.20782     -38195.521      0             -37699.767     -15479.92     
    103550   303.15184     -38203.668      0             -37703.053     -16425.927    
    103600   295.50586     -38208.228      0             -37720.239     -15506.673    
    103650   301.67072     -38238.515      0             -37740.346     -16875.594    
    103700   314.68837     -38244.663      0             -37724.996     -15422.612    
    103750   310.45546     -38236.366      0             -37723.69      -16505.483    
    103800   308.9852      -38223.819      0             -37713.571     -15239.341    
    103850   300.75966     -38217.297      0             -37720.631     -15571.658    
    103900   304.01247     -38219.186      0             -37717.15      -15222.103    
    103950   308.61932     -38214.562      0             -37704.918     -15538.907    
    104000   310.16198     -38236.565      0             -37724.373     -15929.364    
    104050   288.68241     -38202.727      0             -37726.006     -16146.467    
    104100   289.8285      -38203.449      0             -37724.835     -15238.4      
    104150   289.60768     -38172.117      0             -37693.868     -16337.396    
    104200   294.4042      -38212.202      0             -37726.032     -15847.635    
    104250   309.33302     -38223.498      0             -37712.675     -16149.832    
    104300   301.91451     -38207.615      0             -37709.042     -15988.171    
    104350   305.22779     -38202.496      0             -37698.452     -16057.947    
    104400   301.14122     -38205.334      0             -37708.039     -16223.427    
    104450   309.02306     -38232.05       0             -37721.739     -16401.731    
    104500   285.48584     -38166.794      0             -37695.351     -15420.652    
    104550   312.92078     -38206.861      0             -37690.114     -15511.779    
    104600   306.43241     -38242.431      0             -37736.398     -15925.267    
    104650   292.39814     -38200.146      0             -37717.289     -16096.545    
    104700   312.22104     -38235.169      0             -37719.576     -15785.965    
    104750   301.04558     -38220.118      0             -37722.981     -15817.539    
    104800   304.48953     -38230.007      0             -37727.182     -15997.626    
    104850   299.39445     -38222.873      0             -37728.463     -15439.541    
    104900   290.35369     -38198.98       0             -37719.499     -14916.307    
    104950   315.59559     -38241.836      0             -37720.671     -15490.071    
    105000   310.16358     -38271.317      0             -37759.123     -15609.658    
    105050   302.88238     -38244.281      0             -37744.11      -15302.604    
    105100   300.22711     -38245.045      0             -37749.259     -15737.684    
    105150   289.13584     -38188.374      0             -37710.904     -15159.818    
    105200   289.01851     -38203.459      0             -37726.183     -16829.537    
    105250   289.92153     -38208.382      0             -37729.614     -16105.332    
    105300   298.21361     -38223.997      0             -37731.537     -16617.004    
    105350   290.45528     -38194.074      0             -37714.425     -15866.62     
    105400   293.01468     -38185.368      0             -37701.493     -16227.648    
    105450   286.77602     -38179.457      0             -37705.884     -15507.906    
    105500   319.38832     -38226.288      0             -37698.86      -16440.578    
    105550   295.06635     -38215.931      0             -37728.668     -15668.446    
    105600   307.72987     -38213.25       0             -37705.075     -16396.811    
    105650   308.27499     -38246.679      0             -37737.604     -15641.053    
    105700   306.00944     -38222.354      0             -37717.02      -16272.374    
    105750   291.77893     -38193.131      0             -37711.296     -15109.674    
    105800   296.56181     -38200.173      0             -37710.44      -15652.925    
    105850   284.34189     -38200.494      0             -37730.94      -15506.695    
    105900   305.38132     -38246.5        0             -37742.202     -16372.642    
    105950   305.10817     -38212.389      0             -37708.543     -16357.344    
    106000   289.44202     -38175.461      0             -37697.486     -15891.598    
    106050   304.8078      -38198.216      0             -37694.866     -16483.383    
    106100   298.37056     -38190.984      0             -37698.265     -15885.906    
    106150   293.14926     -38160.83       0             -37676.732     -16070.138    
    106200   299.59553     -38180.51       0             -37685.767     -15500.865    
    106250   297.42409     -38216.995      0             -37725.838     -16122.478    
    106300   301.58897     -38205.241      0             -37707.207     -15578.53     
    106350   312.30465     -38228.703      0             -37712.973     -16160.351    
    106400   303.43259     -38210.541      0             -37709.462     -15921.835    
    106450   299.62984     -38175.06       0             -37680.261     -15418.233    
    106500   293.14083     -38185.274      0             -37701.19      -15468.762    
    106550   303.08974     -38202.017      0             -37701.504     -15532.669    
    106600   306.41875     -38218.401      0             -37712.391     -16079.78     
    106650   295.95526     -38223.774      0             -37735.042     -16089.943    
    106700   311.58813     -38249.38       0             -37734.833     -16714.542    
    106750   302.1764      -38224.156      0             -37725.151     -16038.816    
    106800   296.64398     -38219.049      0             -37729.181     -16155.516    
    106850   299.78771     -38190.021      0             -37694.961     -14976.342    
    106900   294.56591     -38215.334      0             -37728.897     -15978.301    
    106950   294.33165     -38213.989      0             -37727.939     -15958.086    
    107000   292.43327     -38177.391      0             -37694.476     -15810.47     
    107050   293.08626     -38180.866      0             -37696.872     -15415.237    
    107100   298.52116     -38207.248      0             -37714.28      -15604.988    
    107150   290.9571      -38189.311      0             -37708.834     -17047.583    
    107200   297.98527     -38183.106      0             -37691.022     -16170.487    
    107250   300.04192     -38210.089      0             -37714.609     -16094.141    
    107300   296.94932     -38193.349      0             -37702.976     -15917.742    
    107350   306.11106     -38201.619      0             -37696.117     -16258.737    
    107400   295.03382     -38202.303      0             -37715.093     -16561.516    
    107450   291.90603     -38185.699      0             -37703.654     -16829.936    
    107500   301.35743     -38220.417      0             -37722.764     -16829.662    
    107550   301.43387     -38209.237      0             -37711.459     -16270.306    
    107600   289.26663     -38188.279      0             -37710.594     -16399.909    
    107650   298.73337     -38182.622      0             -37689.303     -16348.2      
    107700   300.96439     -38189.314      0             -37692.31      -16870.15     
    107750   289.66985     -38137.574      0             -37659.222     -15281.051    
    107800   305.64716     -38190.705      0             -37685.969     -16861.248    
    107850   294.15003     -38181.939      0             -37696.189     -16187.201    
    107900   296.2116      -38159.205      0             -37670.05      -16260.845    
    107950   312.39704     -38215.908      0             -37700.026     -16321.018    
    108000   304.82009     -38205.766      0             -37702.395     -16355.867    
    108050   292.75648     -38159.07       0             -37675.621     -16064.564    
    108100   304.58175     -38199.369      0             -37696.392     -16283.748    
    108150   288.16874     -38178.538      0             -37702.665     -16419.208    
    108200   297.36161     -38186.397      0             -37695.343     -16022.553    
    108250   299.53354     -38189.3        0             -37694.659     -16425.473    
    108300   300.03438     -38194.827      0             -37699.36      -16729.681    
    108350   300.25495     -38198.596      0             -37702.764     -16447.114    
    108400   303.73773     -38204.114      0             -37702.531     -15717.909    
    108450   309.71705     -38216.851      0             -37705.394     -15974.873    
    108500   309.78831     -38231.999      0             -37720.424     -16158.623    
    108550   306.02896     -38233.041      0             -37727.674     -15778.058    
    108600   302.4918      -38228.912      0             -37729.387     -16564.488    
    108650   305.34302     -38218.346      0             -37714.113     -15872.124    
    108700   302.22782     -38219.543      0             -37720.454     -16067.331    
    108750   302.54628     -38244.861      0             -37745.246     -15796.002    
    108800   297.05629     -38218.281      0             -37727.731     -16250.798    
    108850   306.92001     -38229.6        0             -37722.762     -14883.432    
    108900   314.65911     -38262.936      0             -37743.318     -16069.715    
    108950   293.73978     -38210.667      0             -37725.594     -15261.232    
    109000   286.81499     -38221.718      0             -37748.081     -15613.972    
    109050   298.67964     -38238.266      0             -37745.036     -15720.278    
    109100   311.04598     -38237.2        0             -37723.549     -15521.99     
    109150   292.47866     -38230.218      0             -37747.228     -16071.462    
    109200   299.1459      -38222.028      0             -37728.028     -15775.694    
    109250   319.59042     -38268.598      0             -37740.836     -15881.859    
    109300   302.14457     -38271.699      0             -37772.747     -15315.293    
    109350   294.05476     -38219.98       0             -37734.387     -15706.438    
    109400   297.81696     -38219.042      0             -37727.237     -15645.873    
    109450   297.88459     -38261.969      0             -37770.051     -16180.65     
    109500   311.82706     -38267.252      0             -37752.31      -16258.097    
    109550   296.11331     -38217.438      0             -37728.446     -16324.197    
    109600   295.38505     -38234.006      0             -37746.217     -16324.723    
    109650   301.64234     -38248.912      0             -37750.789     -16221.29     
    109700   301.85212     -38218.267      0             -37719.798     -16119.839    
    109750   306.80984     -38241.996      0             -37735.34      -16447.337    
    109800   299.069       -38223.696      0             -37729.823     -15825.266    
    109850   301.59709     -38227.526      0             -37729.478     -16194.421    
    109900   315.33893     -38247.444      0             -37726.703     -16194.08     
    109950   298.83774     -38224.663      0             -37731.171     -16505.63     
    110000   285.21387     -38192.993      0             -37722         -15824.359    
    110050   299.70707     -38232.178      0             -37737.251     -16295.937    
    110100   293.29288     -38223.422      0             -37739.087     -16462.957    
    110150   297.21311     -38212.819      0             -37722.01      -15075.848    
    110200   304.52285     -38248.323      0             -37745.443     -16636.72     
    110250   296.25018     -38221.542      0             -37732.324     -15272.93     
    110300   302.98014     -38242.126      0             -37741.794     -16163.114    
    110350   304.11024     -38237.605      0             -37735.407     -14695.185    
    110400   301.29822     -38228.875      0             -37731.32      -15296.877    
    110450   314.32464     -38253.559      0             -37734.493     -15095.087    
    110500   315.31127     -38269.384      0             -37748.689     -16294.397    
    110550   305.41485     -38249.39       0             -37745.038     -15946.244    
    110600   282.94509     -38221.505      0             -37754.258     -16604.497    
    110650   296.6067      -38231.656      0             -37741.849     -16044.91     
    110700   290.36852     -38200.252      0             -37720.747     -16761.488    
    110750   297.80187     -38205.599      0             -37713.819     -16327.408    
    110800   304.67573     -38198.18       0             -37695.048     -16155.814    
    110850   297.27257     -38192.282      0             -37701.375     -14845.655    
    110900   294.99894     -38185.12       0             -37697.968     -17401.181    
    110950   310.5214      -38213.564      0             -37700.778     -15372.048    
    111000   306.61819     -38221.374      0             -37715.034     -16876.067    
    111050   294.78292     -38198.12       0             -37711.325     -14804.431    
    111100   292.35508     -38201.643      0             -37718.857     -16775.944    
    111150   287.49658     -38195.81       0             -37721.047     -15299.144    
    111200   300.01367     -38208.578      0             -37713.144     -17130.161    
    111250   299.40814     -38201.725      0             -37707.292     -15354.364    
    111300   295.62116     -38183.044      0             -37694.864     -17023.763    
    111350   302.52915     -38186.54       0             -37686.953     -15623.392    
    111400   310.26077     -38201.216      0             -37688.861     -16805.068    
    111450   298.05786     -38178.666      0             -37686.463     -15135.638    
    111500   287.83045     -38172.607      0             -37697.293     -17003.452    
    111550   288.82453     -38166.071      0             -37689.115     -15933.426    
    111600   283.19546     -38159.555      0             -37691.895     -15977.598    
    111650   314.18126     -38210.275      0             -37691.446     -16043.484    
    111700   312.11523     -38195.141      0             -37679.723     -15461.359    
    111750   297.98679     -38194.407      0             -37702.321     -16566.124    
    111800   291.40858     -38198.336      0             -37717.113     -16660.246    
    111850   295.94776     -38174.755      0             -37686.037     -15923.912    
    111900   297.75692     -38186.521      0             -37694.815     -15749.426    
    111950   301.51164     -38195.331      0             -37697.424     -15912.518    
    112000   293.61437     -38168.334      0             -37683.468     -15244.399    
    112050   308.23869     -38176.347      0             -37667.331     -16268.796    
    112100   306.36282     -38200.672      0             -37694.754     -15628.376    
    112150   297.78789     -38197.088      0             -37705.331     -16781.917    
    112200   302.47142     -38216.575      0             -37717.083     -15619.269    
    112250   306.86433     -38192.421      0             -37685.675     -16462.487    
    112300   297.46697     -38183.954      0             -37692.726     -15807.973    
    112350   303.09374     -38211.467      0             -37710.948     -16694.395    
    112400   302.43167     -38197          0             -37697.574     -14893.229    
    112450   302.67932     -38207.481      0             -37707.646     -15751.068    
    112500   298.10855     -38199.874      0             -37707.586     -15049.724    
    112550   288.60193     -38185.694      0             -37709.106     -16128.721    
    112600   287.02546     -38173.145      0             -37699.16      -16000.037    
    112650   291.5725      -38149.977      0             -37668.484     -15342.009    
    112700   299.84167     -38171.739      0             -37676.59      -15924.114    
    112750   297.9962      -38184.253      0             -37692.151     -15284.793    
    112800   301.22513     -38185.348      0             -37687.914     -16341.335    
    112850   319.92029     -38212.051      0             -37683.744     -15229.545    
    112900   312.28711     -38199.002      0             -37683.301     -16628.849    
    112950   306.97992     -38190.579      0             -37683.642     -14818.712    
    113000   305.95656     -38195.68       0             -37690.433     -16044.048    
    113050   285.41726     -38192.708      0             -37721.379     -15170.644    
    113100   293.07406     -38191.395      0             -37707.422     -17178.02     
    113150   287.95166     -38153.64       0             -37678.126     -15418.983    
    113200   301.28668     -38187.36       0             -37689.825     -17497.246    
    113250   301.52822     -38195.078      0             -37697.144     -15253.283    
    113300   309.61694     -38200.323      0             -37689.031     -16610.459    
    113350   282.3572      -38143.264      0             -37676.988     -14863.68     
    113400   291.00762     -38173.754      0             -37693.193     -17513.139    
    113450   292.15369     -38150.671      0             -37668.218     -15113.956    
    113500   295.72574     -38142.513      0             -37654.161     -17299.61     
    113550   304.55791     -38167.216      0             -37664.278     -14410.582    
    113600   297.78597     -38180.516      0             -37688.761     -17527.81     
    113650   300.14629     -38177.869      0             -37682.217     -14549.024    
    113700   300.83704     -38151.834      0             -37655.041     -17376.095    
    113750   304.48217     -38167.618      0             -37664.805     -15248.645    
    113800   297.51848     -38180.433      0             -37689.12      -17402.622    
    113850   297.78342     -38162.009      0             -37670.259     -15975.886    
    113900   308.52521     -38165.652      0             -37656.163     -17217.328    
    113950   296.70943     -38152.564      0             -37662.587     -15968.705    
    114000   303.392       -38185.473      0             -37684.461     -17257.62     
    114050   304.26086     -38178.472      0             -37676.025     -17173.268    
    114100   298.53054     -38177.365      0             -37684.381     -16252.798    
    114150   294.64834     -38185.273      0             -37698.7       -16791.919    
    114200   287.12645     -38150.557      0             -37676.405     -15756.745    
    114250   298.29153     -38161.541      0             -37668.952     -16325.767    
    114300   300.32383     -38180.383      0             -37684.437     -15923.541    
    114350   301.55725     -38208.865      0             -37710.883     -16100.405    
    114400   300.81134     -38207.274      0             -37710.523     -15614.675    
    114450   303.13573     -38180.263      0             -37679.674     -16686.415    
    114500   309.73214     -38187.391      0             -37675.909     -15696.418    
    114550   303.66748     -38204.858      0             -37703.391     -17223.12     
    114600   297.63041     -38179.741      0             -37688.243     -15082.291    
    114650   304.9428      -38227.798      0             -37724.225     -17643.721    
    114700   302.49464     -38212.31       0             -37712.78      -15652.219    
    114750   285.48624     -38155.654      0             -37684.211     -16520.188    
    114800   293.91798     -38180.583      0             -37695.216     -15556.135    
    114850   321.51274     -38230.798      0             -37699.862     -17372.581    
    114900   300.84782     -38211.122      0             -37714.312     -15802.563    
    114950   307.55722     -38220.983      0             -37713.093     -17439.83     
    115000   295.39455     -38156.714      0             -37668.909     -14960.112    
    115050   300.04217     -38206.908      0             -37711.427     -15707.288    
    115100   303.65621     -38199.806      0             -37698.357     -16080.146    
    115150   303.33679     -38186.823      0             -37685.902     -16501.116    
    115200   295.37606     -38191.819      0             -37704.044     -16373.119    
    115250   304.18339     -38203.118      0             -37700.799     -16527.285    
    115300   295.92925     -38197.474      0             -37708.785     -15710.831    
    115350   311.39319     -38218.832      0             -37704.607     -16991.585    
    115400   315.49132     -38207.213      0             -37686.221     -15621.936    
    115450   311.13547     -38207.227      0             -37693.427     -16533.352    
    115500   305.55845     -38230.837      0             -37726.248     -16264.704    
    115550   311.20538     -38221.073      0             -37707.158     -16638.039    
    115600   295.6027      -38211.434      0             -37723.285     -16704.687    
    115650   292.72289     -38205.395      0             -37722.001     -16991.505    
    115700   292.10136     -38197.376      0             -37715.009     -16451.656    
    115750   302.2934      -38200.317      0             -37701.119     -17306.886    
    115800   286.24899     -38179.502      0             -37706.799     -15903.685    
    115850   290.22383     -38141.371      0             -37662.104     -16281.187    
    115900   288.139       -38151.683      0             -37675.859     -15383.236    
    115950   299.63608     -38191.89       0             -37697.08      -16719.852    
    116000   290.43375     -38149.61       0             -37669.997     -15166.368    
    116050   293.96377     -38156.501      0             -37671.059     -16304.238    
    116100   310.61024     -38234.14       0             -37721.208     -16034.763    
    116150   302.61762     -38200.42       0             -37700.687     -16478.665    
    116200   297.21741     -38187.402      0             -37696.586     -15307.743    
    116250   290.41929     -38159.535      0             -37679.946     -16046.466    
    116300   305.80286     -38179.484      0             -37674.491     -15151.049    
    116350   296.79049     -38171.405      0             -37681.294     -15991.787    
    116400   302.69578     -38205.889      0             -37706.027     -15786.346    
    116450   302.4314      -38188.675      0             -37689.249     -16789.619    
    116500   299.30788     -38220.746      0             -37726.478     -16917.016    
    116550   300.4627      -38177.62       0             -37681.446     -16408.601    
    116600   316.98573     -38221.23       0             -37697.77      -16818.182    
    116650   296.50183     -38219.369      0             -37729.735     -16661.884    
    116700   308.72326     -38223.801      0             -37713.985     -16239.56     
    116750   308.25498     -38220.289      0             -37711.247     -15951.195    
    116800   305.00944     -38229.241      0             -37725.558     -17009.152    
    116850   292.29837     -38211.776      0             -37729.084     -15618.018    
    116900   292.98094     -38162.483      0             -37678.663     -16731.398    
    116950   309.13711     -38183.319      0             -37672.82      -14435.556    
    117000   301.72439     -38196.692      0             -37698.434     -16724.081    
    117050   291.41935     -38205.846      0             -37724.605     -15061.771    
    117100   287.06954     -38171.428      0             -37697.371     -16745.277    
    117150   316.9656      -38226.047      0             -37702.62      -14976.852    
    117200   300.93121     -38172.698      0             -37675.749     -16441.971    
    117250   299.10996     -38194.405      0             -37700.464     -15457.141    
    117300   296.63462     -38196.972      0             -37707.119     -16534.408    
    117350   297.83589     -38184.075      0             -37692.238     -15529.636    
    117400   293.61519     -38187.135      0             -37702.268     -17130.697    
    117450   305.61746     -38191.795      0             -37687.108     -15199.719    
    117500   312.86168     -38195.823      0             -37679.173     -16421.733    
    117550   297.07646     -38201.518      0             -37710.936     -15489.26     
    117600   294.12384     -38209.28       0             -37723.573     -16309.257    
    117650   298.25312     -38177.42       0             -37684.894     -15687.674    
    117700   301.68783     -38198.642      0             -37700.444     -16107.44     
    117750   301.42215     -38213.509      0             -37715.75      -15884.765    
    117800   308.73113     -38210.754      0             -37700.925     -15877.455    
    117850   293.3225      -38200.342      0             -37715.958     -16085.714    
    117900   321.15496     -38236.712      0             -37706.367     -15192.942    
    117950   300.58386     -38202.622      0             -37706.247     -15314.303    
    118000   304.21863     -38198.42       0             -37696.043     -16073.361    
    118050   297.46524     -38210.968      0             -37719.744     -15728.457    
    118100   297.96044     -38181.241      0             -37689.198     -15770.291    
    118150   299.47217     -38233.197      0             -37738.658     -15021.369    
    118200   307.7766      -38247.632      0             -37739.379     -15537.739    
    118250   285.36456     -38194.95       0             -37723.708     -14267.167    
    118300   313.77405     -38236.078      0             -37717.921     -16053.206    
    118350   295.62565     -38218.004      0             -37729.817     -15447.543    
    118400   295.15988     -38208.271      0             -37720.853     -16194.106    
    118450   296.89389     -38208.927      0             -37718.645     -15244.929    
    118500   291.67768     -38209.042      0             -37727.375     -16079.256    
    118550   302.6636      -38240.277      0             -37740.467     -16891.41     
    118600   295.88931     -38192.931      0             -37704.309     -16247.172    
    118650   297.10734     -38204.701      0             -37714.067     -16298.392    
    118700   293.46559     -38215.183      0             -37730.563     -17112.288    
    118750   288.41885     -38197.396      0             -37721.11      -17351.576    
    118800   298.62609     -38171.273      0             -37678.131     -16048.738    
    118850   296.45024     -38184.543      0             -37694.994     -15899.899    
    118900   299.78161     -38203.733      0             -37708.683     -16446.813    
    118950   293.97326     -38154.271      0             -37668.813     -16991.701    
    119000   295.60364     -38169.236      0             -37681.086     -15768.36     
    119050   299.46779     -38179.02       0             -37684.488     -15896.664    
    119100   293.98412     -38170.356      0             -37684.88      -15219.267    
    119150   302.58082     -38188.811      0             -37689.138     -16257.392    
    119200   301.36215     -38199.545      0             -37701.885     -15362.414    
    119250   291.26288     -38163.177      0             -37682.195     -16414.725    
    119300   295.12193     -38176.88       0             -37689.525     -14553.25     
    119350   299.31082     -38183.475      0             -37689.202     -16621.582    
    119400   299.02973     -38173.88       0             -37680.071     -15001.097    
    119450   293.50441     -38154.027      0             -37669.343     -16693.528    
    119500   296.84088     -38168.434      0             -37678.24      -15799.65     
    119550   290.53513     -38174.02       0             -37694.239     -17029.205    
    119600   296.91236     -38169.763      0             -37679.451     -14469.623    
    119650   304.24914     -38206.809      0             -37704.381     -17078.055    
    119700   301.94694     -38188.618      0             -37689.992     -14475.504    
    119750   298.43958     -38192.043      0             -37699.209     -16956.461    
    119800   294.60307     -38194.299      0             -37707.8       -15542.479    
    119850   292.41969     -38188.064      0             -37705.172     -18156.702    
    119900   291.92778     -38179.487      0             -37697.406     -15422.123    
    119950   285.08087     -38154.319      0             -37683.545     -17298.753    
    120000   299.5483      -38178.146      0             -37683.482     -15795.501    
    120050   297.9454      -38167.017      0             -37675         -16895.914    
    120100   297.02572     -38167.492      0             -37676.993     -15543.915    
    120150   294.85438     -38148.946      0             -37662.033     -16115.803    
    120200   312.54962     -38179.782      0             -37663.648     -16269.032    
    120250   298.87686     -38187.366      0             -37693.81      -16925.736    
    120300   292.46212     -38135.714      0             -37652.751     -16038.523    
    120350   293.91755     -38164.657      0             -37679.29      -16819.392    
    120400   289.9337      -38140.988      0             -37662.201     -16250.851    
    120450   306.28384     -38171.909      0             -37666.121     -16507.992    
    120500   303.13912     -38160.503      0             -37659.908     -15906.371    
    120550   293.84763     -38146.551      0             -37661.3       -15405.423    
    120600   309.79724     -38160.136      0             -37648.546     -15894.603    
    120650   310.42965     -38183.609      0             -37670.975     -15866.197    
    120700   309.84854     -38163.829      0             -37652.155     -16138.794    
    120750   296.08309     -38181.407      0             -37692.465     -15893.039    
    120800   298.70645     -38175.357      0             -37682.082     -16591.538    
    120850   295.65237     -38166.154      0             -37677.923     -15998.285    
    120900   290.3093      -38149.969      0             -37670.561     -15912.731    
    120950   309.01843     -38189.6        0             -37679.297     -15514.87     
    121000   313.008       -38190.642      0             -37673.75      -15391.419    
    121050   304.40371     -38188.864      0             -37686.181     -16264.119    
    121100   302.72595     -38189.708      0             -37689.796     -15687.26     
    121150   307.10556     -38205.295      0             -37698.151     -17187.762    
    121200   295.65314     -38145.126      0             -37656.894     -15572.306    
    121250   304.47101     -38171.785      0             -37668.992     -17174.762    
    121300   294.16576     -38170.585      0             -37684.809     -15398.452    
    121350   293.24983     -38171.215      0             -37686.951     -17173.378    
    121400   287.18854     -38155.858      0             -37681.604     -15137.171    
    121450   293.2636      -38164.502      0             -37680.215     -17809.008    
    121500   294.77828     -38157.593      0             -37670.805     -15238.34     
    121550   292.15151     -38135.796      0             -37653.347     -16948.656    
    121600   290.27362     -38133.264      0             -37653.915     -16390.973    
    121650   301.33226     -38165.275      0             -37667.665     -16608.321    
    121700   300.88012     -38145.982      0             -37649.118     -16071.963    
    121750   293.03949     -38131.317      0             -37647.401     -16147.702    
    121800   292.19041     -38126.498      0             -37643.984     -15656.928    
    121850   299.54918     -38154.709      0             -37660.043     -16464.436    
    121900   306.44795     -38173.005      0             -37666.946     -16428.801    
    121950   302.88729     -38142.554      0             -37642.376     -15917.871    
    122000   292.72564     -38159.211      0             -37675.813     -15849.201    
    122050   308.44104     -38167.446      0             -37658.096     -16510.288    
    122100   316.51373     -38188.452      0             -37665.771     -16137.622    
    122150   306.72699     -38185.651      0             -37679.131     -16146.98     
    122200   293.45299     -38160.02       0             -37675.421     -15905.27     
    122250   293.48196     -38166.598      0             -37681.951     -15328.59     
    122300   304.88504     -38178.146      0             -37674.669     -16113.521    
    122350   289.88448     -38144.499      0             -37665.793     -15395.876    
    122400   307.74294     -38178.266      0             -37670.069     -15055.469    
    122450   302.40639     -38178.969      0             -37679.585     -15674.461    
    122500   307.57294     -38197.912      0             -37689.995     -15828.486    
    122550   300.50411     -38188.089      0             -37691.846     -15629.284    
    122600   306.27555     -38182.681      0             -37676.908     -15968.295    
    122650   308.70454     -38207.187      0             -37697.402     -15626.151    
    122700   309.10246     -38206.821      0             -37696.379     -16168.606    
    122750   307.55917     -38233.603      0             -37725.709     -14787.703    
    122800   297.73163     -38198.502      0             -37706.837     -15549.393    
    122850   301.84654     -38234.184      0             -37735.724     -15210.952    
    122900   307.93139     -38218.586      0             -37710.078     -16378.468    
    122950   307.50422     -38237.985      0             -37730.182     -14571.678    
    123000   297.80977     -38210.745      0             -37718.951     -15943.793    
    123050   309.78643     -38240.755      0             -37729.183     -14193.766    
    123100   296.15091     -38219.408      0             -37730.353     -16700.916    
    123150   298.63712     -38241.915      0             -37748.755     -15448.058    
    123200   307.42363     -38243.918      0             -37736.249     -17079.956    
    123250   303.72605     -38224.504      0             -37722.941     -15950.707    
    123300   297.94681     -38194.427      0             -37702.406     -16550.087    
    123350   305.4629      -38233.562      0             -37729.13      -16256.489    
    123400   311.25435     -38236.017      0             -37722.022     -15838.526    
    123450   297.33132     -38223.901      0             -37732.897     -15880.819    
    123500   297.20431     -38213.652      0             -37722.858     -15704.153    
    123550   297.64948     -38210.303      0             -37718.774     -14960.812    
    123600   295.45793     -38212.974      0             -37725.064     -15905.368    
    123650   296.23758     -38227.264      0             -37738.066     -15859.605    
    123700   288.78947     -38205.812      0             -37728.914     -16554.807    
    123750   299.10674     -38213.331      0             -37719.396     -15664.315    
    123800   294.12523     -38207.041      0             -37721.332     -15957.891    
    123850   302.3265      -38230.1        0             -37730.847     -15957.57     
    123900   305.41447     -38229.124      0             -37724.772     -16581.744    
    123950   292.18376     -38188.834      0             -37706.331     -15365.027    
    124000   302.2911      -38208.408      0             -37709.214     -17353.898    
    124050   306.37665     -38202.384      0             -37696.443     -14999.437    
    124100   301.96442     -38194.58       0             -37695.926     -16556.094    
    124150   295.42693     -38194.882      0             -37707.024     -15541.212    
    124200   293.62326     -38212.729      0             -37727.849     -15754.619    
    124250   309.07477     -38217.932      0             -37707.535     -15598.905    
    124300   297.97758     -38202.014      0             -37709.943     -15980.595    
    124350   296.59206     -38207.342      0             -37717.56      -15981.57     
    124400   283.87505     -38175.853      0             -37707.07      -16132.127    
    124450   304.88923     -38203.808      0             -37700.323     -16429.444    
    124500   296.72289     -38186.253      0             -37696.254     -15559.209    
    124550   299.54618     -38177.333      0             -37682.671     -16402.528    
    124600   298.04949     -38194.136      0             -37701.946     -15014.106    
    124650   296.50406     -38186.102      0             -37696.465     -16966.813    
    124700   304.23183     -38200.569      0             -37698.17      -14590.496    
    124750   298.99627     -38180.696      0             -37686.943     -16668.219    
    124800   298.5582      -38181.078      0             -37688.049     -14535.697    
    124850   301.49103     -38174.867      0             -37676.994     -17287.03     
    124900   301.21331     -38201.503      0             -37704.089     -15721.715    
    124950   306.77689     -38194.418      0             -37687.816     -17111.795    
    125000   305.23713     -38194.199      0             -37690.14      -15691.324    
    125050   296.55499     -38179.553      0             -37689.831     -16744.462    
    125100   295.26581     -38194.224      0             -37706.631     -15985.922    
    125150   292.67013     -38172.68       0             -37689.374     -16487.302    
    125200   304.51047     -38209.399      0             -37706.54      -16941.915    
    125250   290.22628     -38186.212      0             -37706.941     -16134.318    
    125300   297.89655     -38185.014      0             -37693.077     -17390.423    
    125350   293.01058     -38188.088      0             -37704.219     -15284.726    
    125400   302.67154     -38195.832      0             -37696.01      -18300.53     
    125450   295.51752     -38170.1        0             -37682.091     -15134.559    
    125500   298.8645      -38170.343      0             -37676.807     -17455.334    
    125550   308.16656     -38178.882      0             -37669.985     -15326.947    
    125600   290.35344     -38145.265      0             -37665.784     -17371.756    
    125650   302.3278      -38178.381      0             -37679.126     -15409.607    
    125700   309.23194     -38182.44       0             -37671.784     -17141.071    
    125750   308.01628     -38203.774      0             -37695.126     -15861.334    
    125800   302.9473      -38215.963      0             -37715.686     -17908.204    
    125850   300.19371     -38193.634      0             -37697.904     -14784.397    
    125900   301.59401     -38207.452      0             -37709.409     -17118.408    
    125950   313.87346     -38236.4        0             -37718.079     -14828.134    
    126000   287.50648     -38174.767      0             -37699.988     -17631.774    
    126050   287.97081     -38200.929      0             -37725.383     -15106.111    
    126100   306.39997     -38220.798      0             -37714.819     -17515.768    
    126150   283.37094     -38172.28       0             -37704.33      -14671.983    
    126200   293.04383     -38198.03       0             -37714.107     -16743.49     
    126250   296.4214      -38160.655      0             -37671.154     -14784.855    
    126300   294.67526     -38168.505      0             -37681.887     -16527.159    
    126350   297.47845     -38198.065      0             -37706.818     -15539.008    
    126400   300.72676     -38206.203      0             -37709.592     -16204.387    
    126450   295.12173     -38198.102      0             -37710.747     -15315.563    
    126500   304.08573     -38209.098      0             -37706.94      -16213.637    
    126550   305.72484     -38179.191      0             -37674.327     -15605.8      
    126600   291.45098     -38158.74       0             -37677.447     -15582.326    
    126650   298.50644     -38157.724      0             -37664.78      -15372.088    
    126700   299.66644     -38145.88       0             -37651.021     -15948.503    
    126750   293.33447     -38152.571      0             -37668.168     -15855.352    
    126800   291.79767     -38158.985      0             -37677.119     -16264.644    
    126850   295.05461     -38150.334      0             -37663.09      -15997.321    
    126900   299.14982     -38173.787      0             -37679.78      -15893.324    
    126950   306.98836     -38177.29       0             -37670.339     -15765.262    
    127000   306.60056     -38177.376      0             -37671.065     -15128.057    
    127050   320.51806     -38174.93       0             -37645.637     -16357.43     
    127100   296.43969     -38177.639      0             -37688.108     -16509.603    
    127150   299.86789     -38141.863      0             -37646.671     -15814.283    
    127200   299.09958     -38165.273      0             -37671.349     -16529.045    
    127250   304.93352     -38179.92       0             -37676.363     -16083.237    
    127300   287.37292     -38127.814      0             -37653.255     -15928.308    
    127350   297.98431     -38157.668      0             -37665.586     -16066.584    
    127400   314.92326     -38185.025      0             -37664.971     -15394.607    
    127450   304.88999     -38203.257      0             -37699.771     -15558.96     
    127500   313.46291     -38193.166      0             -37675.523     -15549.288    
    127550   295.96094     -38175.399      0             -37686.658     -14862.088    
    127600   302.39764     -38160.326      0             -37660.955     -15847.407    
    127650   307.03101     -38196.004      0             -37688.982     -15641.383    
    127700   304.37374     -38196.454      0             -37693.821     -16894.746    
    127750   303.90989     -38180.187      0             -37678.32      -15753.238    
    127800   307.25073     -38198.549      0             -37691.165     -16633.332    
    127850   296.11246     -38182.447      0             -37693.456     -15202.113    
    127900   300.1015      -38179.738      0             -37684.16      -16752.166    
    127950   290.91667     -38156.659      0             -37676.248     -15247.13     
    128000   298.13807     -38177.939      0             -37685.603     -16342.395    
    128050   300.24111     -38179.474      0             -37683.666     -16702.984    
    128100   306.53389     -38175.606      0             -37669.406     -15742.375    
    128150   306.88003     -38175.521      0             -37668.749     -17241.015    
    128200   292.90267     -38164.814      0             -37681.124     -15871.275    
    128250   297.09638     -38155.867      0             -37665.251     -16951.902    
    128300   299.06919     -38157.069      0             -37663.196     -15365.226    
    128350   302.78432     -38168.392      0             -37668.383     -17726.868    
    128400   302.14015     -38152.33       0             -37653.385     -15881.666    
    128450   303.57436     -38160.754      0             -37659.441     -18600.91     
    128500   303.4171      -38146.891      0             -37645.838     -15727.147    
    128550   318.82074     -38205.44       0             -37678.95      -17596.795    
    128600   290.04539     -38136.658      0             -37657.686     -15855.607    
    128650   303.4064      -38164.504      0             -37663.468     -17063.018    
    128700   296.50492     -38166.294      0             -37676.655     -16091.558    
    128750   299.09292     -38153.025      0             -37659.112     -16844.835    
    128800   296.83047     -38162.503      0             -37672.326     -16571.874    
    128850   310.15716     -38192.745      0             -37680.561     -17293.268    
    128900   298.60072     -38144.956      0             -37651.856     -16806.87     
    128950   281.08562     -38127.066      0             -37662.89      -16520.762    
    129000   303.63675     -38187.893      0             -37686.477     -16974.644    
    129050   312.08136     -38197.461      0             -37682.1       -16113.431    
    129100   308.45457     -38187.353      0             -37677.98      -16372.241    
    129150   299.01631     -38183.909      0             -37690.123     -16346.26     
    129200   312.07991     -38223.877      0             -37708.518     -16503.69     
    129250   306.86993     -38195.605      0             -37688.849     -16126.361    
    129300   291.42416     -38203.342      0             -37722.094     -15996.321    
    129350   281.175       -38158.147      0             -37693.823     -15525.223    
    129400   305.7259      -38214.718      0             -37709.852     -15912.534    
    129450   293.20493     -38180.68       0             -37696.491     -16608.737    
    129500   292.28457     -38202.421      0             -37719.752     -15463.053    
    129550   291.93062     -38172.98       0             -37690.895     -15863.875    
    129600   293.01831     -38189.534      0             -37705.653     -15567.63     
    129650   303.82454     -38189.475      0             -37687.749     -16635.195    
    129700   300.44786     -38195.427      0             -37699.277     -14282.664    
    129750   300.24837     -38204.944      0             -37709.123     -16741.242    
    129800   296.14142     -38194.753      0             -37705.714     -14359.949    
    129850   310.80143     -38210.032      0             -37696.785     -17163.165    
    129900   315.81867     -38241.92       0             -37720.387     -15808.466    
    129950   288.65032     -38194.464      0             -37717.796     -17505.799    
    130000   305.19676     -38224.249      0             -37720.257     -15979.611    
    130050   298.63448     -38193.041      0             -37699.885     -16563.427    
    130100   295.5118      -38216.237      0             -37728.238     -16027.699    
    130150   300.21749     -38224.277      0             -37728.507     -16881.096    
    130200   301.60519     -38239.588      0             -37741.527     -15804.866    
    130250   300.52457     -38234.2        0             -37737.923     -17754.404    
    130300   299.31428     -38219.385      0             -37725.107     -14911.567    
    130350   292.15977     -38184.975      0             -37702.512     -16743.821    
    130400   298.6443      -38211.857      0             -37718.685     -15167.65     
    130450   297.79777     -38189.429      0             -37697.655     -17177.639    
    130500   304.06285     -38229.468      0             -37727.349     -14946.639    
    130550   299.77332     -38202.387      0             -37707.35      -17626.84     
    130600   288.0317      -38164.459      0             -37688.813     -14584.212    
    130650   309.88047     -38222.224      0             -37710.497     -17507.592    
    130700   300.60997     -38192.036      0             -37695.618     -15254.547    
    130750   297.77852     -38215.418      0             -37723.676     -16891.049    
    130800   303.94551     -38217.192      0             -37715.266     -14899.828    
    130850   299.47602     -38192.543      0             -37697.998     -17163.815    
    130900   292.60489     -38175.275      0             -37692.076     -15532.49     
    130950   290.73469     -38164.522      0             -37684.412     -18188.022    
    131000   296.28646     -38167.683      0             -37678.404     -15737.658    
    131050   295.19729     -38181.853      0             -37694.374     -17310.548    
    131100   301.31854     -38208.249      0             -37710.661     -16212.358    
    131150   296.67524     -38194.627      0             -37704.707     -17100.459    
    131200   282.41748     -38142.218      0             -37675.843     -15457.77     
    131250   294.56723     -38150.712      0             -37664.273     -17243.928    
    131300   301.99775     -38184.497      0             -37685.787     -16154.29     
    131350   300.45509     -38170.914      0             -37674.752     -16605.57     
    131400   297.73264     -38181.087      0             -37689.421     -15629.632    
    131450   307.92867     -38206.93       0             -37698.426     -16587.468    
    131500   307.55495     -38192.375      0             -37684.489     -16278.913    
    131550   298.9122      -38205.775      0             -37712.16      -16969.123    
    131600   293.80109     -38167.719      0             -37682.545     -16320.335    
    131650   311.70375     -38196.676      0             -37681.938     -16624.539    
    131700   301.75965     -38177.725      0             -37679.409     -16868.771    
    131750   300.76136     -38185.098      0             -37688.431     -16523.246    
    131800   314.74803     -38211.991      0             -37692.226     -16728.025    
    131850   295.62565     -38199.975      0             -37711.788     -16238.975    
    131900   297.64661     -38178.909      0             -37687.384     -17097.73     
    131950   300.77906     -38183.044      0             -37686.347     -16695.324    
    132000   286.15317     -38149.513      0             -37676.969     -16751.943    
    132050   291.56142     -38165.586      0             -37684.11      -16738.113    
    132100   292.91118     -38148.101      0             -37664.397     -15842.813    
    132150   298.73168     -38160.862      0             -37667.546     -16259.435    
    132200   323.47708     -38212.665      0             -37678.485     -15631.91     
    132250   305.73603     -38195.487      0             -37690.604     -17159.6      
    132300   296.36473     -38160.33       0             -37670.922     -14928.824    
    132350   308.25617     -38180.66       0             -37671.616     -17162.619    
    132400   293.37947     -38183.328      0             -37698.85      -15062.9      
    132450   294.19995     -38169.802      0             -37683.97      -17198.371    
    132500   301.15357     -38190.116      0             -37692.801     -15082.155    
    132550   293.35005     -38179.809      0             -37695.38      -17645.859    
    132600   305.26041     -38195.005      0             -37690.908     -15469.563    
    132650   313.87802     -38223.406      0             -37705.078     -17271.523    
    132700   299.53686     -38227.831      0             -37733.185     -15169.533    
    132750   299.07576     -38197.952      0             -37704.068     -17331.638    
    132800   300.35337     -38207.459      0             -37711.465     -15542.162    
    132850   311.99558     -38221.429      0             -37706.209     -17248.573    
    132900   314.6339      -38222.377      0             -37702.801     -14640.775    
    132950   288.51201     -38186.601      0             -37710.162     -16879.966    
    133000   303.75398     -38225.133      0             -37723.523     -14926.835    
    133050   303.74992     -38205.417      0             -37703.814     -16484.662    
    133100   294.28099     -38195.523      0             -37709.557     -15010.124    
    133150   306.34866     -38225.296      0             -37719.401     -16601.495    
    133200   292.91414     -38191.696      0             -37707.987     -15049.774    
    133250   301.40239     -38222.279      0             -37724.552     -16498.88     
    133300   289.82128     -38187.846      0             -37709.244     -15723.174    
    133350   303.91194     -38197.077      0             -37695.206     -16867.722    
    133400   295.98244     -38177.916      0             -37689.14      -15751.853    
    133450   295.65668     -38186.421      0             -37698.183     -16066.224    
    133500   294.45575     -38202.977      0             -37716.722     -15653.557    
    133550   304.66157     -38211.588      0             -37708.479     -15324.851    
    133600   305.92853     -38235.701      0             -37730.5       -15996.864    
    133650   301.1643      -38240.078      0             -37742.745     -15605.773    
    133700   293.53376     -38192.39       0             -37707.658     -15076.81     
    133750   302.75074     -38234.892      0             -37734.939     -15561.725    
    133800   292.70332     -38196.403      0             -37713.042     -16059.311    
    133850   289.46619     -38175.35       0             -37697.335     -14731.165    
    133900   294.38881     -38188.09       0             -37701.945     -16963.51     
    133950   298.62292     -38228.077      0             -37734.94      -14941.94     
    134000   313.01793     -38212.034      0             -37695.126     -16580.877    
    134050   302.72014     -38225.463      0             -37725.561     -14070.068    
    134100   306.63728     -38217.813      0             -37711.441     -16902.928    
    134150   300.98759     -38218.748      0             -37721.706     -14116.624    
    134200   301.68224     -38194.841      0             -37696.653     -16659.963    
    134250   300.10468     -38209.437      0             -37713.854     -14312.517    
    134300   301.42691     -38200.635      0             -37702.868     -17134.046    
    134350   280.59107     -38159.324      0             -37695.965     -14733.763    
    134400   314.94167     -38209.283      0             -37689.198     -17236.184    
    134450   310.04419     -38202.236      0             -37690.238     -14775.495    
    134500   309.19367     -38218.577      0             -37707.984     -17507.619    
    134550   299.15153     -38212.041      0             -37718.031     -15026.891    
    134600   296.80121     -38174.885      0             -37684.757     -17648.167    
    134650   291.45607     -38202.405      0             -37721.103     -15638.375    
    134700   293.59967     -38170.96       0             -37686.119     -17066.701    
    134750   296.21432     -38206.743      0             -37717.584     -15888.309    
    134800   307.58695     -38214.8        0             -37706.861     -17361.751    
    134850   296.79536     -38176.207      0             -37686.088     -16785.252    
    134900   296.38911     -38160.207      0             -37670.759     -16748.834    
    134950   295.61456     -38180.991      0             -37692.823     -17403.678    
    135000   294.41508     -38166.862      0             -37680.674     -16207.5      
    135050   303.63874     -38137.391      0             -37635.972     -16800.246    
    135100   312.41985     -38204.157      0             -37688.237     -16263.02     
    135150   314.57516     -38204.055      0             -37684.575     -17013.355    
    135200   298.63        -38173.884      0             -37680.736     -15427.295    
    135250   323.43756     -38200.446      0             -37666.332     -17426.455    
    135300   303.36499     -38204.815      0             -37703.848     -15620.48     
    135350   307.10495     -38189.397      0             -37682.254     -16602.653    
    135400   314.87392     -38200.632      0             -37680.659     -15540.077    
    135450   304.6491      -38214.229      0             -37711.141     -17456.77     
    135500   298.14435     -38189.611      0             -37697.265     -15446.186    
    135550   293.0233      -38166.946      0             -37683.057     -16487.992    
    135600   301.22175     -38187.836      0             -37690.408     -15593.725    
    135650   297.28187     -38169.691      0             -37678.769     -15941.283    
    135700   297.11278     -38200.824      0             -37710.181     -15122.594    
    135750   312.9097      -38203.702      0             -37686.973     -15289.568    
    135800   303.30126     -38195.797      0             -37694.935     -14677.414    
    135850   302.6338      -38195.088      0             -37695.328     -15568.775    
    135900   311.48853     -38229.218      0             -37714.836     -15368.968    
    135950   298.83285     -38229.354      0             -37735.871     -16329.404    
    136000   300.00678     -38249.861      0             -37754.439     -16412.976    
    136050   306.27016     -38244.931      0             -37739.166     -15692.398    
    136100   304.98193     -38226.025      0             -37722.388     -16032.211    
    136150   304.97589     -38223.469      0             -37719.841     -14968.654    
    136200   304.51524     -38262.86       0             -37759.993     -16497.23     
    136250   294.37997     -38201.95       0             -37715.821     -14482.001    
    136300   307.07779     -38239.384      0             -37732.285     -16281.048    
    136350   294.23172     -38189.468      0             -37703.582     -15249.837    
    136400   301.32337     -38213.459      0             -37715.863     -15760.202    
    136450   295.68383     -38201.913      0             -37713.63      -15415.687    
    136500   310.02147     -38218.369      0             -37706.409     -16142.495    
    136550   302.38982     -38218.917      0             -37719.56      -15818.943    
    136600   294.7981      -38197.805      0             -37710.985     -16851.631    
    136650   301.41498     -38215.078      0             -37717.331     -15301.126    
    136700   284.07867     -38163.639      0             -37694.52      -16800.573    
    136750   310.20698     -38219.781      0             -37707.515     -15132.966    
    136800   307.84057     -38214.378      0             -37706.02      -17048.167    
    136850   300.11869     -38218.521      0             -37722.915     -15620.458    
    136900   303.0978      -38215.667      0             -37715.141     -16794.399    
    136950   299.85349     -38222.997      0             -37727.829     -15781.039    
    137000   306.24208     -38212.941      0             -37707.222     -16275.363    
    137050   291.00919     -38215.98       0             -37735.417     -15476.868    
    137100   303.31726     -38231.717      0             -37730.829     -15808.933    
    137150   311.336       -38230.074      0             -37715.943     -15608.223    
    137200   303.50537     -38223.178      0             -37721.978     -16106.733    
    137250   299.90269     -38244.687      0             -37749.437     -15986.671    
    137300   292.68885     -38241.456      0             -37758.119     -15866.993    
    137350   298.13967     -38231.96       0             -37739.621     -15179.952    
    137400   305.89637     -38283.969      0             -37778.821     -16803.245    
    137450   297.30569     -38241.364      0             -37750.402     -15894.033    
    137500   294.99489     -38250.376      0             -37763.23      -16904.891    
    137550   304.06557     -38263.471      0             -37761.347     -15553.625    
    137600   290.48757     -38213.456      0             -37733.754     -16978.589    
    137650   290.73602     -38246.434      0             -37766.321     -15605.942    
    137700   297.99226     -38246.151      0             -37754.056     -18003.749    
    137750   298.60446     -38235.329      0             -37742.223     -14191.939    
    137800   290.91784     -38217.462      0             -37737.049     -17849.832    
    137850   299.10574     -38249.037      0             -37755.103     -15488.854    
    137900   306.57775     -38263.623      0             -37757.35      -18366.59     
    137950   299.70471     -38239.584      0             -37744.661     -14872.242    
    138000   292.85166     -38221.23       0             -37737.624     -16791.472    
    138050   300.58716     -38262.804      0             -37766.424     -15443.418    
    138100   292.79481     -38258.962      0             -37775.45      -16534.104    
    138150   290.87593     -38194.856      0             -37714.512     -14709.486    
    138200   293.17        -38240.32       0             -37756.188     -16541.14     
    138250   302.41803     -38251.898      0             -37752.495     -16244.691    
    138300   314.21062     -38246.545      0             -37727.668     -15931.568    
    138350   302.75356     -38241.659      0             -37741.702     -15807.676    
    138400   303.58752     -38245.891      0             -37744.556     -15811.073    
    138450   296.72844     -38234.003      0             -37743.995     -16440.935    
    138500   305.39669     -38260.125      0             -37755.802     -16307.776    
    138550   301.76622     -38267.76       0             -37769.432     -16517.725    
    138600   294.54404     -38257.802      0             -37771.401     -15825.026    
    138650   299.13368     -38243.571      0             -37749.591     -16159.841    
    138700   292.12912     -38227.093      0             -37744.68      -14801.202    
    138750   295.90745     -38234.902      0             -37746.25      -16215.649    
    138800   289.80045     -38205.205      0             -37726.638     -14614.185    
    138850   300.61256     -38219.83       0             -37723.408     -17221.18     
    138900   304.35626     -38247.14       0             -37744.535     -14939.655    
    138950   291.4017      -38204.881      0             -37723.67      -15842.94     
    139000   290.84286     -38215.871      0             -37735.582     -15201.78     
    139050   306.40351     -38221.499      0             -37715.514     -16016.615    
    139100   292.83928     -38218.803      0             -37735.217     -15780.001    
    139150   288.01323     -38214.77       0             -37739.154     -16794.851    
    139200   286.97191     -38201.837      0             -37727.941     -15724.65     
    139250   289.63917     -38193.717      0             -37715.416     -16262.545    
    139300   295.93587     -38223.677      0             -37734.978     -16516.338    
    139350   316.99234     -38230.036      0             -37706.565     -16587.781    
    139400   296.6266      -38220.9        0             -37731.06      -15338.255    
    139450   291.14017     -38219.011      0             -37738.231     -16963.886    
    139500   300.71963     -38197.592      0             -37700.993     -15047.683    
    139550   293.61467     -38192.795      0             -37707.929     -16277.16     
    139600   299.77151     -38212.492      0             -37717.458     -15858.15     
    139650   286.06059     -38153.283      0             -37680.892     -16368.801    
    139700   304.15166     -38200.409      0             -37698.142     -15714.48     
    139750   318.26726     -38240.212      0             -37714.635     -16758.923    
    139800   304.58895     -38205.146      0             -37702.157     -16506.892    
    139850   293.0062      -38196.696      0             -37712.835     -17260.261    
    139900   298.40287     -38178.505      0             -37685.732     -15958.681    
    139950   308.9306      -38200.567      0             -37690.409     -17017.267    
    140000   312.52621     -38230.795      0             -37714.699     -16900.827    
    140050   300.35301     -38208.195      0             -37712.201     -16573.449    
    140100   303.87161     -38232.002      0             -37730.198     -16610.296    
    140150   291.13334     -38211.953      0             -37731.184     -17062.579    
    140200   292.53419     -38198.999      0             -37715.917     -16042.856    
    140250   299.74245     -38217.48       0             -37722.495     -16739.646    
    140300   303.22537     -38216.482      0             -37715.745     -15693.363    
    140350   291.04599     -38216.173      0             -37735.548     -17210.12     
    140400   299.13098     -38237.408      0             -37743.432     -15981.037    
    140450   295.51631     -38217.812      0             -37729.806     -16280.92     
    140500   310.87132     -38247.981      0             -37734.618     -15763.795    
    140550   297.56166     -38220.371      0             -37728.987     -16524.483    
    140600   290.84758     -38205.744      0             -37725.448     -15835.454    
    140650   289.14929     -38195.646      0             -37718.154     -15502.947    
    140700   304.17086     -38249.395      0             -37747.097     -15836.09     
    140750   302.57384     -38225.482      0             -37725.821     -15297.819    
    140800   301.20028     -38251.227      0             -37753.834     -16247.435    
    140850   302.35069     -38228.765      0             -37729.473     -15262.716    
    140900   301.43141     -38222.345      0             -37724.571     -15843.584    
    140950   292.49364     -38244.404      0             -37761.39      -16494.039    
    141000   277.54598     -38193.104      0             -37734.773     -15565.365    
    141050   282.58319     -38194.356      0             -37727.707     -16742.544    
    141100   294.83236     -38202.95       0             -37716.073     -16349.558    
    141150   292.58578     -38189.093      0             -37705.926     -16025.87     
    141200   302.65152     -38200.003      0             -37700.213     -14779.732    
    141250   304.29445     -38209.164      0             -37706.661     -16343.143    
    141300   292.02271     -38204.865      0             -37722.628     -14761.534    
    141350   289.63243     -38206.32       0             -37728.03      -16206.395    
    141400   311.03579     -38213.821      0             -37700.186     -15927.656    
    141450   284.1115      -38195.225      0             -37726.052     -16324.073    
    141500   291.17718     -38202.586      0             -37721.745     -15296.128    
    141550   298.8515      -38184.549      0             -37691.035     -16428.741    
    141600   307.77892     -38218.104      0             -37709.848     -15553.871    
    141650   298.65961     -38197.653      0             -37704.456     -16839.665    
    141700   307.15187     -38236.446      0             -37729.225     -16361.726    
    141750   300.95772     -38210.005      0             -37713.013     -16611.442    
    141800   301.59005     -38188.58       0             -37690.544     -15408.997    
    141850   304.97662     -38202.568      0             -37698.939     -16847.361    
    141900   301.00149     -38211.059      0             -37713.995     -16480.988    
    141950   304.43917     -38210.077      0             -37707.336     -16218.51     
    142000   292.35212     -38202.496      0             -37719.715     -16347.172    
    142050   313.23291     -38216.46       0             -37699.197     -15942.837    
    142100   300.88823     -38197.163      0             -37700.285     -15418.325    
    142150   310.42915     -38248.671      0             -37736.038     -16081.016    
    142200   293.47519     -38206.365      0             -37721.73      -15734.138    
    142250   310.15932     -38229.285      0             -37717.098     -15878.484    
    142300   314.88648     -38253.322      0             -37733.328     -15988.677    
    142350   313.08592     -38278.507      0             -37761.487     -16065.012    
    142400   297.02236     -38216.059      0             -37725.566     -15987.659    
    142450   288.54745     -38202.548      0             -37726.05      -15786.329    
    142500   288.7192      -38203.3        0             -37726.518     -16812.143    
    142550   298.79294     -38194.862      0             -37701.445     -15437.945    
    142600   294.12595     -38217.104      0             -37731.394     -16517.047    
    142650   294.6801      -38194.191      0             -37707.566     -15560.198    
    142700   296.4909      -38243.807      0             -37754.191     -16758.65     
    142750   304.78502     -38216.663      0             -37713.35      -16599.455    
    142800   291.00321     -38233.166      0             -37752.612     -16756.134    
    142850   300.24254     -38223.051      0             -37727.24      -17059.175    
    142900   303.51655     -38205.494      0             -37704.276     -16905.043    
    142950   301.22697     -38204.228      0             -37706.791     -16489.479    
    143000   304.20304     -38229.26       0             -37726.909     -16271.572    
    143050   298.82168     -38210.922      0             -37717.457     -16908.071    
    143100   299.94207     -38192.234      0             -37696.919     -16283.444    
    143150   301.95523     -38216.865      0             -37718.226     -16087.982    
    143200   301.44106     -38208.379      0             -37710.589     -15977.661    
    143250   285.36635     -38177.374      0             -37706.129     -15606.529    
    143300   288.86938     -38194.279      0             -37717.25      -16102.726    
    143350   298.73148     -38184.664      0             -37691.349     -15417.755    
    143400   283.99378     -38174.07       0             -37705.092     -16250.097    
    143450   299.44781     -38200.881      0             -37706.382     -16134.92     
    143500   296.80403     -38199.931      0             -37709.798     -16553.214    
    143550   303.14998     -38209.317      0             -37708.704     -16459.772    
    143600   309.64256     -38218.898      0             -37707.564     -16426.077    
    143650   293.78204     -38196.995      0             -37711.853     -16055.986    
    143700   309.91486     -38216.425      0             -37704.641     -16859.087    
    143750   302.3592      -38210.778      0             -37711.471     -15273.47     
    143800   296.00989     -38209.573      0             -37720.752     -17178.875    
    143850   288.04886     -38197.98       0             -37722.305     -15664.253    
    143900   304.55472     -38208.921      0             -37705.989     -17119.652    
    143950   310.49243     -38221.488      0             -37708.751     -15241.263    
    144000   299.93468     -38195.461      0             -37700.158     -17488.523    
    144050   288.38203     -38165.849      0             -37689.624     -15554.66     
    144100   299.80737     -38201.859      0             -37706.767     -16953.084    
    144150   290.76071     -38209.449      0             -37729.296     -15413.454    
    144200   299.53378     -38202.523      0             -37707.883     -16826.323    
    144250   301.90999     -38203.448      0             -37704.883     -16035.657    
    144300   301.72555     -38201.473      0             -37703.213     -16455.427    
    144350   296.49882     -38210.072      0             -37720.443     -15436.722    
    144400   290.00631     -38198.054      0             -37719.146     -16735.14     
    144450   303.64082     -38209.904      0             -37708.481     -15008.776    
    144500   306.80686     -38246.272      0             -37739.621     -17357.286    
    144550   303.7939      -38224.741      0             -37723.065     -15335.303    
    144600   312.79719     -38230.623      0             -37714.08      -17428.762    
    144650   297.31723     -38228.582      0             -37737.602     -15962.664    
    144700   302.08451     -38237.138      0             -37738.285     -16590.966    
    144750   303.14991     -38233.426      0             -37732.814     -15267.903    
    144800   295.25593     -38211.107      0             -37723.531     -16242.889    
    144850   288.29805     -38202.346      0             -37726.26      -15184.772    
    144900   301.16011     -38217.348      0             -37720.022     -16474.294    
    144950   304.3724      -38215.503      0             -37712.872     -16103.115    
    145000   297.72579     -38194.679      0             -37703.024     -16094.769    
    145050   299.94561     -38207.535      0             -37712.214     -16497.637    
    145100   306.05826     -38225.177      0             -37719.762     -16545.434    
    145150   311.43202     -38225.069      0             -37710.78      -17010.172    
    145200   301.64526     -38218.172      0             -37720.044     -15614.226    
    145250   302.65087     -38218.904      0             -37719.116     -16000.781    
    145300   301.56199     -38242.409      0             -37744.419     -16334.265    
    145350   293.84838     -38207.436      0             -37722.184     -17389.708    
    145400   309.28786     -38227.229      0             -37716.481     -15780.781    
    145450   304.01493     -38211.868      0             -37709.827     -17505.277    
    145500   303.41392     -38213.681      0             -37712.633     -14990.573    
    145550   296.83159     -38228.188      0             -37738.01      -17060.577    
    145600   303.32902     -38223.351      0             -37722.443     -15597.082    
    145650   305.48318     -38236.427      0             -37731.962     -17059.557    
    145700   305.59157     -38213.487      0             -37708.842     -16612.292    
    145750   311.31398     -38216.043      0             -37701.948     -17098.959    
    145800   306.48627     -38253.937      0             -37747.815     -16209.324    
    145850   307.60623     -38225.858      0             -37717.887     -17450.835    
    145900   311.89746     -38264.08       0             -37749.023     -16383.236    
    145950   291.85725     -38230.338      0             -37748.374     -16781.561    
    146000   298.24163     -38236.101      0             -37743.594     -16460.088    
    146050   294.18937     -38219.182      0             -37733.367     -16372.996    
    146100   303.97799     -38226.957      0             -37724.977     -16482.403    
    146150   292.33194     -38216.459      0             -37733.711     -16516.757    
    146200   302.46735     -38224.114      0             -37724.628     -16156.069    
    146250   293.77444     -38210.752      0             -37725.622     -16342.516    
    146300   287.00289     -38205.964      0             -37732.017     -16068.182    
    146350   303.32817     -38231.084      0             -37730.177     -16899.017    
    146400   293.46937     -38234.379      0             -37749.753     -15398.454    
    146450   321.82833     -38241.591      0             -37710.134     -16500.829    
    146500   309.40924     -38240.903      0             -37729.955     -15698.824    
    146550   300.11877     -38272.406      0             -37776.799     -16399.748    
    146600   298.61271     -38243.012      0             -37749.892     -15928.573    
    146650   301.76252     -38245.252      0             -37746.931     -16334.378    
    146700   319.00654     -38261.805      0             -37735.008     -15002.685    
    146750   299.2611      -38244.138      0             -37749.948     -16210.194    
    146800   294.77549     -38243.342      0             -37756.559     -15878.902    
    146850   300.2461      -38246.743      0             -37750.926     -15581.443    
    146900   321.94127     -38302.994      0             -37771.351     -16262.152    
    146950   321.35738     -38288.38       0             -37757.7       -15451.948    
    147000   301.86628     -38276.185      0             -37777.692     -16508.72     
    147050   283.07394     -38233.007      0             -37765.547     -15405.429    
    147100   287.62214     -38223.484      0             -37748.514     -15977.938    
    147150   290.11583     -38249.391      0             -37770.303     -15659.801    
    147200   293.50978     -38243.758      0             -37759.065     -16669.935    
    147250   303.93551     -38257.154      0             -37755.244     -15202.015    
    147300   293.40874     -38231.058      0             -37746.532     -16969.84     
    147350   307.7752      -38269.533      0             -37761.282     -15117.404    
    147400   305.02714     -38276.953      0             -37773.241     -17855.992    
    147450   284.72164     -38240.194      0             -37770.014     -15222.626    
    147500   301.8271      -38253.829      0             -37755.401     -16152.712    
    147550   299.23655     -38254.354      0             -37760.204     -15945.647    
    147600   293.50386     -38237.107      0             -37752.424     -15853.659    
    147650   302.77724     -38233.742      0             -37733.745     -16051.571    
    147700   298.78674     -38258.882      0             -37765.475     -16387.021    
    147750   301.41378     -38278.657      0             -37780.912     -16319.26     
    147800   289.00752     -38234.715      0             -37757.457     -15654.109    
    147850   299.93873     -38260.261      0             -37764.951     -16077.01     
    147900   284.04372     -38241.326      0             -37772.265     -16282.043    
    147950   298.2541      -38234.98       0             -37742.452     -16363.527    
    148000   300.2336      -38242.729      0             -37746.933     -16887.479    
    148050   290.08112     -38207.353      0             -37728.323     -16055.208    
    148100   303.69597     -38241.357      0             -37739.843     -15893.032    
    148150   304.44392     -38248.377      0             -37745.627     -16549.502    
    148200   308.2708      -38248.825      0             -37739.756     -15884.56     
    148250   315.38864     -38277.25       0             -37756.427     -17240.078    
    148300   294.9386      -38246.909      0             -37759.857     -15432.524    
    148350   301.29205     -38239.135      0             -37741.591     -15830.823    
    148400   299.66949     -38247.303      0             -37752.439     -15742.478    
    148450   289.9109      -38252.834      0             -37774.084     -16092.007    
    148500   305.5061      -38267.188      0             -37762.685     -15919.226    
    148550   296.98917     -38243.938      0             -37753.499     -16174.308    
    148600   300.24439     -38234.254      0             -37738.44      -15892.241    
    148650   308.42641     -38253.908      0             -37744.583     -16419.652    
    148700   303.34782     -38278.239      0             -37777.3       -16377.632    
    148750   293.19568     -38258.842      0             -37774.668     -16267.505    
    148800   304.15209     -38287.197      0             -37784.93      -16387.247    
    148850   307.00088     -38280.147      0             -37773.175     -16017.41     
    148900   295.87951     -38242.361      0             -37753.754     -15256.824    
    148950   303.76611     -38262.32       0             -37760.69      -16179.376    
    149000   312.08195     -38285.65       0             -37770.287     -15573.82     
    149050   301.68553     -38255.728      0             -37757.534     -16889.738    
    149100   283.34482     -38203.582      0             -37735.675     -15077.369    
    149150   299.82098     -38226.52       0             -37731.405     -15831.751    
    149200   297.65948     -38246.223      0             -37754.677     -14644.326    
    149250   300.02879     -38240.764      0             -37745.306     -17513.533    
    149300   304.07824     -38256.007      0             -37753.862     -15605.512    
    149350   305.59668     -38256.965      0             -37752.313     -16873.167    
    149400   297.33694     -38236.939      0             -37745.926     -16490.807    
    149450   291.9478      -38228.325      0             -37746.212     -16543.967    
    149500   289.38098     -38196.481      0             -37718.607     -16384.424    
    149550   289.44358     -38233.972      0             -37755.994     -16047.964    
    149600   298.40125     -38241.549      0             -37748.779     -16174.489    
    149650   287.75222     -38213.191      0             -37738.006     -15387.499    
    149700   305.85546     -38250.587      0             -37745.507     -16132.39     
    149750   299.48376     -38228.721      0             -37734.163     -15588.45     
    149800   309.35356     -38244.134      0             -37733.277     -15073.939    
    149850   296.31135     -38249.409      0             -37760.09      -16308.421    
    149900   301.04993     -38237.937      0             -37740.793     -14738.564    
    149950   290.52014     -38194.542      0             -37714.786     -15811.782    
    150000   300.01888     -38234.425      0             -37738.983     -15386.443    
    150050   300.05549     -38225.841      0             -37730.339     -16490.859    
    150100   298.6411      -38252.174      0             -37759.007     -15132.196    
    150150   298.31782     -38225.162      0             -37732.53      -16415.214    
    150200   291.25078     -38216.692      0             -37735.729     -15098.702    
    150250   289.14425     -38199.169      0             -37721.686     -16511.515    
    150300   294.12492     -38213.425      0             -37727.716     -15113.788    
    150350   295.33426     -38199.448      0             -37711.742     -16692.775    
    150400   308.41422     -38224.971      0             -37715.665     -15263.421    
    150450   309.52032     -38220.639      0             -37709.507     -17137.771    
    150500   294.49037     -38211.112      0             -37724.8       -15090.259    
    150550   293.89925     -38203.044      0             -37717.708     -16595.946    
    150600   287.01383     -38173.023      0             -37699.057     -14965.701    
    150650   295.19612     -38198.476      0             -37710.998     -16675.551    
    150700   295.08894     -38204.445      0             -37717.144     -15672.449    
    150750   300.15293     -38198.756      0             -37703.093     -15829.397    
    150800   292.96327     -38176.131      0             -37692.34      -15963.127    
    150850   293.1528      -38197.48       0             -37713.377     -14853.172    
    150900   295.30243     -38177.639      0             -37689.986     -16639.829    
    150950   295.26378     -38167.534      0             -37679.945     -14708.887    
    151000   290.98536     -38171.6        0             -37691.076     -17041.8      
    151050   298.05529     -38203.055      0             -37710.856     -14491.868    
    151100   301.61189     -38187.201      0             -37689.129     -16990.632    
    151150   319.02239     -38200.902      0             -37674.079     -14272.537    
    151200   308.10601     -38215.82       0             -37707.023     -16605.793    
    151250   320.20149     -38225.677      0             -37696.906     -14392.295    
    151300   318.9289      -38255.79       0             -37729.12      -17790.278    
    151350   299.79549     -38236.124      0             -37741.051     -14913.04     
    151400   310.70602     -38251.152      0             -37738.062     -17378.703    
    151450   302.46027     -38232.216      0             -37732.742     -14672.708    
    151500   290.1166      -38246.793      0             -37767.703     -17132.091    
    151550   297.39883     -38236.887      0             -37745.772     -15543.745    
    151600   289.93908     -38207.218      0             -37728.422     -15439.026    
    151650   306.37839     -38238.175      0             -37732.231     -15136.379    
    151700   306.4964      -38238.492      0             -37732.354     -15231.978    
    151750   299.428       -38205.918      0             -37711.452     -15161.651    
    151800   296.4821      -38224.902      0             -37735.301     -15937.159    
    151850   299.4524      -38225.004      0             -37730.498     -15735.017    
    151900   305.69935     -38250.897      0             -37746.075     -16066.79     
    151950   296.13964     -38213.991      0             -37724.955     -15795.185    
    152000   300.13698     -38248.72       0             -37753.083     -14905.04     
    152050   298.79041     -38237.42       0             -37744.007     -15423.406    
    152100   298.63634     -38248.663      0             -37755.504     -15935.341    
    152150   294.36852     -38245.166      0             -37759.055     -16257.48     
    152200   307.35038     -38262.128      0             -37754.579     -15683.811    
    152250   296.11646     -38230.902      0             -37741.904     -15988.601    
    152300   311.27717     -38265.219      0             -37751.186     -15767.196    
    152350   304.33353     -38260.348      0             -37757.781     -16108.209    
    152400   297.70512     -38232.99       0             -37741.369     -15874.48     
    152450   295.98825     -38245.751      0             -37756.966     -15196.956    
    152500   301.99254     -38242.613      0             -37743.912     -15665.053    
    152550   293.58362     -38214.961      0             -37730.146     -15790.936    
    152600   288.26693     -38198.8        0             -37722.765     -15491.595    
    152650   293.47791     -38226.051      0             -37741.411     -16154.895    
    152700   300.03834     -38224.579      0             -37729.105     -15554.252    
    152750   292.59437     -38228.074      0             -37744.893     -16628.379    
    152800   303.57167     -38251.332      0             -37750.024     -15588.168    
    152850   300.93942     -38229.638      0             -37732.676     -16109.946    
    152900   300.30286     -38229.26       0             -37733.349     -14168.929    
    152950   303.81283     -38243.978      0             -37742.271     -16161.115    
    153000   314.11252     -38262.072      0             -37743.356     -15684.075    
    153050   307.05935     -38238.473      0             -37731.404     -16629.995    
    153100   291.39145     -38210.492      0             -37729.298     -14918.047    
    153150   311.41603     -38269.137      0             -37754.874     -17284.107    
    153200   294.59225     -38238.596      0             -37752.115     -14796.229    
    153250   297.30942     -38234.125      0             -37743.157     -16720.657    
    153300   295.23124     -38262.585      0             -37775.05      -14845.546    
    153350   301.93011     -38228.07       0             -37729.472     -16505.664    
    153400   307.13746     -38256.108      0             -37748.911     -15341.413    
    153450   317.72659     -38257.296      0             -37732.612     -16526.102    
    153500   301.78879     -38241.327      0             -37742.962     -14561.622    
    153550   300.63143     -38243.588      0             -37747.135     -16297.695    
    153600   287.06168     -38229.421      0             -37755.376     -15105.928    
    153650   304.9468      -38268.53       0             -37764.95      -15921.604    
    153700   293.01492     -38266.587      0             -37782.711     -15715.411    
    153750   297.54833     -38233.941      0             -37742.579     -15343.639    
    153800   302.71112     -38234.465      0             -37734.577     -14759.647    
    153850   310.00053     -38256.034      0             -37744.109     -15636.258    
    153900   306.60733     -38262.098      0             -37755.776     -15136.461    
    153950   315.56948     -38271.052      0             -37749.931     -15933.882    
    154000   288.61394     -38237.534      0             -37760.926     -15587.25     
    154050   293.82992     -38246.594      0             -37761.373     -17027.006    
    154100   291.51221     -38203.359      0             -37721.965     -15094.677    
    154150   290.76741     -38224.423      0             -37744.259     -16929.247    
    154200   289.39598     -38206.017      0             -37728.118     -15009.229    
    154250   313.17435     -38242.028      0             -37724.861     -16771.227    
    154300   288.82311     -38195.645      0             -37718.692     -15549.208    
    154350   308.53111     -38231.969      0             -37722.471     -17047.178    
    154400   295.24628     -38237.292      0             -37749.732     -15498.663    
    154450   300.36151     -38207.324      0             -37711.317     -17535.016    
    154500   303.50586     -38217.678      0             -37716.477     -15793.513    
    154550   305.94345     -38223.124      0             -37717.898     -17304.077    
    154600   291.48741     -38218.058      0             -37736.705     -15647.711    
    154650   302.71674     -38206.535      0             -37706.638     -16856.626    
    154700   305.96039     -38231.376      0             -37726.122     -15499.299    
    154750   290.2714      -38217.917      0             -37738.571     -17418.281    
    154800   292.10813     -38194.59       0             -37712.212     -15266.99     
    154850   303.28151     -38190.672      0             -37689.843     -16289.053    
    154900   303.50982     -38219.887      0             -37718.681     -15588.564    
    154950   314.28697     -38214.575      0             -37695.571     -17437.516    
    155000   299.28836     -38198.627      0             -37704.391     -15382.347    
    155050   296.39765     -38201.382      0             -37711.92      -17319.781    
    155100   293.10067     -38197.221      0             -37713.203     -15667.592    
    155150   300.31132     -38206.108      0             -37710.183     -16939.642    
    155200   304.7846      -38218.886      0             -37715.575     -15751.374    
    155250   296.99608     -38211.979      0             -37721.529     -16949.497    
    155300   307.31086     -38248.952      0             -37741.468     -16180.406    
    155350   303.76651     -38219.557      0             -37717.926     -16386.36     
    155400   299.53693     -38216.97       0             -37722.324     -15674.384    
    155450   298.71573     -38245.514      0             -37752.225     -17081.104    
    155500   286.6001      -38211.971      0             -37738.688     -15442.762    
    155550   301.92452     -38219.469      0             -37720.881     -16659.154    
    155600   286.30466     -38197.475      0             -37724.68      -14698.543    
    155650   307.44493     -38220.537      0             -37712.832     -17277.866    
    155700   311.51086     -38234.346      0             -37719.927     -14634.299    
    155750   296.21223     -38227.823      0             -37738.667     -16923.471    
    155800   309.17304     -38243.422      0             -37732.864     -15337.104    
    155850   299.636       -38223.657      0             -37728.847     -15332.99     
    155900   286.9298      -38181.451      0             -37707.624     -16634.016    
    155950   307.17927     -38235.607      0             -37728.341     -15453.919    
    156000   296.37088     -38208.417      0             -37718.999     -16392.112    
    156050   300.91398     -38235.728      0             -37738.808     -14910.93     
    156100   285.74398     -38187.142      0             -37715.273     -16778.149    
    156150   300.16449     -38211.314      0             -37715.632     -15445.183    
    156200   292.2832      -38160.959      0             -37678.292     -16077.983    
    156250   301.98564     -38203.094      0             -37704.404     -15202.244    
    156300   316.05808     -38240.156      0             -37718.227     -16601.397    
    156350   311.19246     -38217.285      0             -37703.392     -14853.933    
    156400   294.83484     -38211.319      0             -37724.438     -16450.198    
    156450   297.26644     -38238.732      0             -37747.836     -15323.039    
    156500   303.27055     -38250.59       0             -37749.779     -16626.581    
    156550   307.81707     -38260.422      0             -37752.103     -15470.233    
    156600   302.35049     -38238.376      0             -37739.084     -15867.717    
    156650   311.3089      -38263.318      0             -37749.232     -15234.891    
    156700   299.07591     -38236.18       0             -37742.296     -15859.725    
    156750   288.28036     -38228.454      0             -37752.397     -15959.911    
    156800   303.44787     -38258.048      0             -37756.944     -15566.085    
    156850   298.30642     -38240.827      0             -37748.213     -16069.442    
    156900   298.44527     -38226.081      0             -37733.238     -14794.335    
    156950   296.69503     -38252.861      0             -37762.908     -15749.193    
    157000   312.25496     -38286.793      0             -37771.144     -14792.287    
    157050   308.29203     -38289.593      0             -37780.49      -16579.745    
    157100   309.23382     -38288.139      0             -37777.48      -15748.777    
    157150   293.88357     -38260.041      0             -37774.73      -17066.785    
    157200   315.30557     -38267.834      0             -37747.148     -15049.188    
    157250   321.47488     -38286.825      0             -37755.951     -16267.476    
    157300   291.43176     -38233.645      0             -37752.384     -14855.557    
    157350   304.57995     -38270.363      0             -37767.389     -16652.944    
    157400   298.43484     -38256.381      0             -37763.555     -14734.9      
    157450   305.64591     -38272.073      0             -37767.339     -17396.086    
    157500   292.85708     -38241.31       0             -37757.695     -15019.275    
    157550   314.53139     -38284.036      0             -37764.629     -17649.442    
    157600   313.59091     -38288.867      0             -37771.013     -14564.672    
    157650   298.49697     -38246.727      0             -37753.798     -17593.684    
    157700   283.33131     -38235.356      0             -37767.471     -14930.692    
    157750   290.68108     -38249.62       0             -37769.598     -17948.955    
    157800   303.47316     -38255.612      0             -37754.466     -14430.16     
    157850   294.84919     -38237.047      0             -37750.143     -16931.608    
    157900   308.54879     -38287.362      0             -37777.835     -15728.997    
    157950   303.17722     -38266.723      0             -37766.065     -17426.385    
    158000   295.78165     -38269.637      0             -37781.193     -15668.351    
    158050   294.49683     -38258.273      0             -37771.95      -16927.787    
    158100   297.40725     -38245.238      0             -37754.109     -15737.73     
    158150   304.95255     -38250.499      0             -37746.909     -16981.598    
    158200   294.18158     -38231.227      0             -37745.424     -15543.195    
    158250   303.9467      -38238.2        0             -37736.272     -15988.376    
    158300   311.34103     -38261.288      0             -37747.149     -15928.545    
    158350   297.81905     -38237.758      0             -37745.949     -16418.704    
    158400   292.00735     -38228.456      0             -37746.244     -16480.532    
    158450   298.62681     -38208.381      0             -37715.238     -15767.033    
    158500   308.77193     -38245.817      0             -37735.92      -16277.521    
    158550   306.82063     -38257.505      0             -37750.831     -15868.488    
    158600   293.97449     -38250.585      0             -37765.125     -15840.102    
    158650   310.07592     -38264.087      0             -37752.037     -15586.979    
    158700   304.30218     -38254.06       0             -37751.545     -16648.231    
    158750   300.35511     -38255.259      0             -37759.262     -16357.021    
    158800   294.0558      -38236.586      0             -37750.991     -16234.113    
    158850   298.62681     -38244.475      0             -37751.332     -16247.422    
    158900   294.02574     -38228.88       0             -37743.336     -16290.709    
    158950   294.82637     -38251.247      0             -37764.38      -16787.352    
    159000   312.96793     -38262.855      0             -37746.03      -15859.16     
    159050   316.02938     -38267.405      0             -37745.524     -15921.076    
    159100   311.35587     -38285.747      0             -37771.584     -16321.615    
    159150   310.77093     -38270.139      0             -37756.941     -15675.73     
    159200   302.37176     -38285.66       0             -37786.333     -16337.206    
    159250   288.08351     -38258.15       0             -37782.418     -16894.085    
    159300   303.88571     -38270.073      0             -37768.245     -15408.586    
    159350   293.78754     -38237.614      0             -37752.462     -16158.509    
    159400   312.43374     -38278.142      0             -37762.198     -15622.487    
    159450   299.48753     -38263.184      0             -37768.62      -16764.564    
    159500   296.3014      -38263.032      0             -37773.729     -16125.805    
    159550   297.64084     -38247.582      0             -37756.067     -16568.934    
    159600   300.84744     -38260.927      0             -37764.117     -15698.285    
    159650   294.52854     -38234.069      0             -37747.693     -17007.641    
    159700   302.58025     -38281.373      0             -37781.701     -15993.975    
    159750   299.71874     -38262.14       0             -37767.194     -16780.352    
    159800   301.60209     -38262.866      0             -37764.81      -15534.376    
    159850   298.84826     -38254.03       0             -37760.522     -16832.929    
    159900   301.21989     -38278.019      0             -37780.594     -15675.442    
    159950   308.72219     -38254.639      0             -37744.825     -17006.916    
    160000   286.67879     -38226.748      0             -37753.336     -15139.403    
    160050   300.55099     -38256.964      0             -37760.643     -17603.928    
    160100   296.08143     -38257.177      0             -37768.237     -14880.506    
    160150   308.15344     -38246.039      0             -37737.164     -17367.931    
    160200   294.65961     -38267.472      0             -37780.88      -15037.585    
    160250   297.73546     -38219.359      0             -37727.688     -17235.125    
    160300   293.82172     -38230.684      0             -37745.476     -15123.813    
    160350   304.72891     -38234.17       0             -37730.951     -17384.19     
    160400   286.24882     -38231.966      0             -37759.263     -14808.723    
    160450   302.06521     -38246.97       0             -37748.149     -16744.422    
    160500   288.08366     -38245.443      0             -37769.711     -15608.501    
    160550   303.35559     -38237.021      0             -37736.069     -15674.168    
    160600   312.72751     -38264.719      0             -37748.29      -15461.434    
    160650   307.38996     -38278.511      0             -37770.897     -16187.621    
    160700   303.4003      -38231.331      0             -37730.305     -16329.493    
    160750   294.90039     -38197.669      0             -37710.68      -15846.127    
    160800   278.99114     -38179.851      0             -37719.134     -15265.873    
    160850   299.92887     -38229.797      0             -37734.504     -16430.792    
    160900   292.44445     -38198.981      0             -37716.047     -15762.965    
    160950   303.42104     -38221.991      0             -37720.931     -16403.169    
    161000   309.07238     -38224.979      0             -37714.586     -15391.014    
    161050   305.92739     -38228.125      0             -37722.926     -16469.653    
    161100   291.96718     -38213.558      0             -37731.413     -15149.613    
    161150   297.0699      -38237.59       0             -37747.018     -16488.895    
    161200   294.75888     -38215.618      0             -37728.862     -15203.083    
    161250   311.8338      -38252.13       0             -37737.177     -17311.921    
    161300   296.08791     -38248.859      0             -37759.909     -14952.191    
    161350   296.38104     -38239.348      0             -37749.913     -16846.145    
    161400   300.37246     -38252.007      0             -37755.981     -15198.136    
    161450   301.18017     -38217.83       0             -37720.47      -17018.183    
    161500   293.51176     -38215.345      0             -37730.649     -15637.159    
    161550   301.07827     -38224.346      0             -37727.155     -17282.308    
    161600   292.00875     -38191.394      0             -37709.18      -16147.27     
    161650   288.10323     -38197.284      0             -37721.52      -16661.502    
    161700   291.39463     -38168.664      0             -37687.464     -15267.654    
    161750   287.69587     -38169.402      0             -37694.31      -17282.135    
    161800   294.14628     -38175.655      0             -37689.911     -15096.955    
    161850   281.96003     -38155.528      0             -37689.908     -17057.886    
    161900   296.82233     -38145.561      0             -37655.398     -15215.782    
    161950   300.04658     -38198.824      0             -37703.337     -17123.912    
    162000   293.10063     -38152.909      0             -37668.891     -15458.396    
    162050   293.64459     -38156.437      0             -37671.522     -17043.529    
    162100   293.66237     -38158.53       0             -37673.585     -15550.997    
    162150   290.38987     -38139.655      0             -37660.115     -16845.759    
    162200   291.58079     -38162.565      0             -37681.058     -15894.942    
    162250   298.22372     -38151.139      0             -37658.662     -16901.411    
    162300   294.83831     -38156.254      0             -37669.367     -15282.024    
    162350   296.15558     -38172.203      0             -37683.14      -16798.353    
    162400   303.08076     -38180.284      0             -37679.786     -14250.231    
    162450   300.17614     -38178.836      0             -37683.134     -16558.988    
    162500   294.76907     -38179.082      0             -37692.31      -14575.179    
    162550   315.24681     -38196.245      0             -37675.656     -17150.021    
    162600   301.60664     -38196.881      0             -37698.817     -15379.906    
    162650   298.60189     -38225.073      0             -37731.972     -17374.473    
    162700   304.14739     -38196.893      0             -37694.634     -14804.507    
    162750   308.54979     -38220.897      0             -37711.367     -17025.911    
    162800   294.97278     -38182.154      0             -37695.045     -15513.071    
    162850   292.85993     -38179.547      0             -37695.927     -16041.511    
    162900   278.88862     -38155.43       0             -37694.882     -14681.397    
    162950   293.70827     -38191.771      0             -37706.751     -16482.212    
    163000   308.97828     -38199.687      0             -37689.45      -15448.213    
    163050   300.876       -38195.947      0             -37699.089     -15699.895    
    163100   303.63584     -38198.205      0             -37696.79      -15281.303    
    163150   298.89965     -38206.855      0             -37713.262     -16148.806    
    163200   293.1099      -38178.975      0             -37694.943     -16296.448    
    163250   309.76247     -38220.21       0             -37708.678     -16115.692    
    163300   307.06579     -38200.707      0             -37693.628     -16280.635    
    163350   309.25112     -38214.077      0             -37703.389     -15781.423    
    163400   289.83682     -38188.378      0             -37709.751     -16302.583    
    163450   303.44389     -38209.654      0             -37708.556     -16179.994    
    163500   304.80503     -38213.325      0             -37709.979     -16385.773    
    163550   300.43603     -38208.84       0             -37712.709     -16220.486    
    163600   292.37243     -38181.651      0             -37698.836     -15523.223    
    163650   303.21785     -38206.631      0             -37705.907     -15730.518    
    163700   316.26116     -38224.121      0             -37701.857     -15789.733    
    163750   304.88011     -38203.461      0             -37699.991     -15612.234    
    163800   300.44487     -38212.813      0             -37716.668     -15982.815    
    163850   297.2317      -38194.338      0             -37703.499     -15432.773    
    163900   296.54059     -38190.932      0             -37701.234     -16475.329    
    163950   303.09788     -38214.732      0             -37714.205     -15152.544    
    164000   302.45216     -38228.208      0             -37728.748     -17165.663    
    164050   305.13548     -38241.943      0             -37738.052     -15715.964    
    164100   297.6383      -38185.965      0             -37694.455     -17190.318    
    164150   303.61054     -38209.18       0             -37707.807     -14434.054    
    164200   284.15925     -38195.62       0             -37726.369     -18139.541    
    164250   297.53196     -38201.31       0             -37709.975     -14979.484    
    164300   298.99106     -38181.229      0             -37687.485     -18159.786    
    164350   303.47985     -38203.214      0             -37702.057     -14956.625    
    164400   300.17692     -38217.102      0             -37721.4       -18135.023    
    164450   296.9066      -38178.147      0             -37687.845     -14726.074    
    164500   298.93042     -38206.052      0             -37712.407     -18419.428    
    164550   296.63718     -38192.029      0             -37702.172     -13803.727    
    164600   318.35852     -38229.742      0             -37704.015     -18832.69     
    164650   291.7591      -38187.012      0             -37705.21      -14726.978    
    164700   307.84004     -38213.135      0             -37704.778     -17396.326    
    164750   305.53749     -38189.482      0             -37684.927     -14680.28     
    164800   296.76312     -38175.352      0             -37685.287     -17221.113    
    164850   295.79535     -38191.939      0             -37703.472     -14452.532    
    164900   289.14919     -38158.197      0             -37680.706     -17267.233    
    164950   297.29902     -38220.215      0             -37729.265     -15445.065    
    165000   287.14551     -38202.32       0             -37728.137     -17340.589    
    165050   303.98143     -38203.266      0             -37701.281     -15949.898    
    165100   307.80155     -38205.559      0             -37697.265     -16832.677    
    165150   286.92735     -38163.668      0             -37689.845     -16650.885    
    165200   303.56908     -38194.985      0             -37693.681     -16121.009    
    165250   304.34134     -38233.637      0             -37731.057     -17207.936    
    165300   295.27017     -38174.745      0             -37687.145     -14901.084    
    165350   308.47401     -38189.524      0             -37680.12      -16513.34     
    165400   305.6474      -38183.231      0             -37678.495     -15092.988    
    165450   308.09662     -38198.152      0             -37689.371     -16056.862    
    165500   296.99283     -38187.089      0             -37696.645     -13840.321    
    165550   314.15355     -38204.572      0             -37685.789     -16028.316    
    165600   307.6673      -38227.634      0             -37719.562     -14177.205    
    165650   292.11795     -38199.148      0             -37716.754     -17340.701    
    165700   299.80308     -38205          0             -37709.915     -15317.997    
    165750   298.62839     -38190.537      0             -37697.391     -16666.924    
    165800   305.81563     -38197.843      0             -37692.828     -14755.48     
    165850   303.04886     -38196.293      0             -37695.847     -16736.064    
    165900   299.02313     -38203.123      0             -37709.325     -14753.107    
    165950   296.65787     -38214.262      0             -37724.37      -17723.213    
    166000   314.23246     -38222.316      0             -37703.403     -14372.19     
    166050   297.43313     -38238.913      0             -37747.742     -17000.182    
    166100   298.20148     -38217.183      0             -37724.742     -15418.322    
    166150   286.59181     -38209.714      0             -37736.445     -17152.329    
    166200   296.27754     -38197.857      0             -37708.594     -14931.858    
    166250   296.68474     -38207.381      0             -37717.445     -16878.777    
    166300   294.66789     -38187.473      0             -37700.868     -15306.928    
    166350   296.24228     -38216.603      0             -37727.398     -16928.913    
    166400   300.16508     -38221.6        0             -37725.917     -15409.609    
    166450   306.17733     -38233.838      0             -37728.226     -16791.092    
    166500   312.20268     -38248.783      0             -37733.221     -15905.276    
    166550   294.44407     -38241.584      0             -37755.348     -16474.628    
    166600   291.8252      -38260.169      0             -37778.258     -16559.796    
    166650   292.84272     -38208.971      0             -37725.38      -16662.627    
    166700   295.03094     -38198.114      0             -37710.909     -17001.7      
    166750   279.99167     -38174.545      0             -37712.175     -15083.978    
    166800   294.05608     -38195.121      0             -37709.526     -17299.171    
    166850   294.26077     -38217.007      0             -37731.074     -16165.861    
    166900   306.27252     -38226.739      0             -37720.971     -16295.303    
    166950   304.68283     -38218.598      0             -37715.454     -16346.249    
    167000   309.28965     -38222.478      0             -37711.726     -16764.464    
    167050   292.21908     -38192.854      0             -37710.292     -16018.86     
    167100   301.95047     -38213.607      0             -37714.975     -17489.237    
    167150   298.08558     -38199.437      0             -37707.188     -16050.226    
    167200   291.54976     -38194.543      0             -37713.087     -16785.071    
    167250   294.3519      -38209.823      0             -37723.739     -15865.072    
    167300   302.77951     -38187.195      0             -37687.194     -16084.713    
    167350   305.59847     -38182.512      0             -37677.856     -16011.958    
    167400   305.36256     -38189.633      0             -37685.367     -16854.477    
    167450   288.31611     -38166.002      0             -37689.886     -15580.658    
    167500   300.97064     -38191.098      0             -37694.085     -16969.293    
    167550   319.5043      -38242.298      0             -37714.678     -16035.14     
    167600   296.12727     -38205.855      0             -37716.839     -16867.612    
    167650   303.27645     -38226.273      0             -37725.451     -15204.417    
    167700   303.74688     -38234.541      0             -37732.943     -17332.702    
    167750   310.61899     -38235.942      0             -37722.996     -14965.861    
    167800   299.123       -38213.635      0             -37719.673     -18046.987    
    167850   293.15841     -38218.589      0             -37734.476     -15403.449    
    167900   288.91886     -38190.244      0             -37713.133     -17786.671    
    167950   290.36535     -38181.797      0             -37702.296     -15381.98     
    168000   294.70886     -38186.447      0             -37699.774     -17127.47     
    168050   297.69174     -38193.747      0             -37702.148     -14735.671    
    168100   309.97889     -38215.108      0             -37703.218     -17589.765    
    168150   302.31411     -38206.985      0             -37707.752     -15597.098    
    168200   295.92866     -38159.307      0             -37670.62      -17401.538    
    168250   303.43482     -38191.354      0             -37690.271     -15316.619    
    168300   307.38995     -38194.006      0             -37686.392     -16959.198    
    168350   297.81681     -38192.596      0             -37700.791     -15551.757    
    168400   298.41144     -38191.497      0             -37698.709     -17550.252    
    168450   300.93624     -38189.464      0             -37692.507     -14906.796    
    168500   299.863       -38200.938      0             -37705.754     -17731.883    
    168550   294.10358     -38170.003      0             -37684.33      -14709.484    
    168600   300.38558     -38211.382      0             -37715.335     -17767.803    
    168650   302.71647     -38211.867      0             -37711.97      -15109.164    
    168700   286.89452     -38181.149      0             -37707.381     -17254.944    
    168750   293.64936     -38176.302      0             -37691.379     -14841.456    
    168800   312.22524     -38216.954      0             -37701.355     -17275.616    
    168850   297.93352     -38194.209      0             -37702.21      -14623.787    
    168900   302.02722     -38221.451      0             -37722.692     -17387.628    
    168950   309.96565     -38235.163      0             -37723.295     -15223.587    
    169000   304.50666     -38217.038      0             -37714.185     -16563.128    
    169050   297.18653     -38216.454      0             -37725.689     -15159.075    
    169100   309.81169     -38218.72       0             -37707.107     -17066.55     
    169150   292.14723     -38203.213      0             -37720.77      -15036.443    
    169200   306.469       -38238.437      0             -37732.344     -16621.654    
    169250   314.13013     -38247.577      0             -37728.833     -15591.178    
    169300   294.0832      -38228.596      0             -37742.956     -16104.08     
    169350   299.03222     -38210.297      0             -37716.484     -15294.344    
    169400   289.29496     -38218.039      0             -37740.306     -16107.127    
    169450   317.19499     -38270.994      0             -37747.189     -16323.306    
    169500   321.55226     -38274.385      0             -37743.384     -15604.136    
    169550   307.94096     -38234.009      0             -37725.485     -15976.675    
    169600   294.91069     -38248.036      0             -37761.029     -13699.904    
    169650   297.74931     -38225.925      0             -37734.231     -16474.893    
    169700   304.04111     -38270.071      0             -37767.987     -13929.649    
    169750   310.72271     -38276.366      0             -37763.248     -17399.572    
    169800   297.52234     -38256.947      0             -37765.628     -13407.436    
    169850   295.62197     -38223.382      0             -37735.201     -17566.518    
    169900   294.284       -38233.984      0             -37748.013     -13017.779    
    169950   303.73098     -38244.348      0             -37742.777     -18074.118    
    170000   298.36946     -38259.295      0             -37766.577     -13810.807    
    170050   286.3125      -38227.443      0             -37754.636     -18755.966    
    170100   291.98081     -38226.887      0             -37744.719     -13948.553    
    170150   291.52021     -38219.925      0             -37738.518     -17758.845    
    170200   292.42337     -38216.963      0             -37734.064     -15193.919    
    170250   286.08314     -38198.699      0             -37726.271     -17337.925    
    170300   305.91029     -38208.538      0             -37703.367     -15677.35     
    170350   286.74586     -38184.347      0             -37710.824     -16841.372    
    170400   301.7941      -38239.367      0             -37740.993     -15710.73     
    170450   303.44988     -38228.568      0             -37727.461     -16471.796    
    170500   301.17804     -38205.272      0             -37707.916     -15232.424    
    170550   302.72093     -38229.894      0             -37729.99      -15706.728    
    170600   294.98644     -38226.404      0             -37739.272     -16031.914    
    170650   309.12198     -38242.273      0             -37731.799     -15111.46     
    170700   299.36798     -38223.622      0             -37729.255     -16659.498    
    170750   300.64347     -38242.124      0             -37745.651     -15107.311    
    170800   296.5534      -38226.649      0             -37736.93      -16240.978    
    170850   302.89196     -38234.003      0             -37733.817     -15601.328    
    170900   298.04407     -38221.959      0             -37729.778     -15829.895    
    170950   293.96759     -38200.867      0             -37715.418     -15975.278    
    171000   289.81478     -38202.045      0             -37723.454     -16177.286    
    171050   288.68824     -38193.562      0             -37716.831     -16314.177    
    171100   294.39192     -38217.476      0             -37731.327     -17096.965    
    171150   299.91187     -38206.248      0             -37710.983     -16117.064    
    171200   294.05418     -38223.939      0             -37738.347     -16937.631    
    171250   284.95664     -38194.494      0             -37723.926     -16196.053    
    171300   296.87435     -38190.907      0             -37700.657     -16078.521    
    171350   297.66292     -38194.688      0             -37703.137     -16838.631    
    171400   315.19925     -38240.166      0             -37719.656     -16632.183    
    171450   302.74484     -38206.836      0             -37706.892     -16694.499    
    171500   298.53337     -38214.508      0             -37721.52      -16352.037    
    171550   292.2798      -38199.774      0             -37717.113     -16421.478    
    171600   292.53223     -38219.88       0             -37736.801     -15890.601    
    171650   297.40105     -38209.135      0             -37718.017     -16198.87     
    171700   300.41505     -38223.073      0             -37726.977     -15751.579    
    171750   294.54847     -38195.582      0             -37709.174     -16832.937    
    171800   312.02874     -38176.629      0             -37661.354     -15546.777    
    171850   301.86173     -38204.177      0             -37705.692     -17214.294    
    171900   295.46546     -38178.192      0             -37690.27      -15394.129    
    171950   305.2664      -38199.741      0             -37695.634     -18024.764    
    172000   302.45052     -38211.196      0             -37711.738     -15822.625    
    172050   306.0119      -38210.251      0             -37704.913     -17150.073    
    172100   296.46476     -38190.803      0             -37701.23      -15713.461    
    172150   294.46342     -38178.834      0             -37692.566     -16604.137    
    172200   290.26086     -38203.815      0             -37724.487     -16531.356    
    172250   296.89998     -38183.585      0             -37693.294     -16425.422    
    172300   297.05733     -38170.502      0             -37679.951     -15757.549    
    172350   309.47025     -38203.398      0             -37692.348     -16105.739    
    172400   309.62909     -38217.305      0             -37705.994     -15624.316    
    172450   312.50088     -38224.708      0             -37708.654     -16090.266    
    172500   298.28293     -38201.636      0             -37709.061     -15617.429    
    172550   292.34045     -38202.532      0             -37719.77      -16408.905    
    172600   298.52608     -38221.215      0             -37728.239     -16353.452    
    172650   286.90639     -38181.786      0             -37707.998     -15899.779    
    172700   290.61759     -38178.188      0             -37698.271     -16786.294    
    172750   303.77575     -38201.799      0             -37700.153     -15383.836    
    172800   304.98167     -38212.554      0             -37708.917     -16067.343    
    172850   296.1535      -38202.579      0             -37713.52      -14463.202    
    172900   308.04406     -38230.368      0             -37721.674     -16185.734    
    172950   311.55158     -38234.554      0             -37720.067     -14761.471    
    173000   297.67044     -38190.674      0             -37699.11      -16797.216    
    173050   299.25447     -38200.464      0             -37706.285     -14640.878    
    173100   298.17869     -38184.309      0             -37691.906     -16192.636    
    173150   290.95498     -38205.224      0             -37724.75      -15042.563    
    173200   306.55741     -38210.964      0             -37704.724     -16704.493    
    173250   300.31853     -38223.949      0             -37728.013     -15109.724    
    173300   308.19877     -38237.702      0             -37728.752     -17028.74     
    173350   306.52976     -38230.036      0             -37723.842     -15096.669    
    173400   292.97663     -38210.783      0             -37726.97      -16762.667    
    173450   312.36422     -38238.629      0             -37722.801     -15740.235    
    173500   281.9803      -38182.204      0             -37716.551     -16357.243    
    173550   299.23931     -38215.036      0             -37720.881     -15620.726    
    173600   308.35853     -38226.075      0             -37716.862     -16387.709    
    173650   300.2877      -38236.287      0             -37740.401     -15814.834    
    173700   296.92117     -38205.357      0             -37715.03      -16290.453    
    173750   297.78055     -38223.107      0             -37731.361     -15573.577    
    173800   299.11095     -38223.047      0             -37729.105     -16430.024    
    173850   299.95207     -38224.186      0             -37728.854     -15514.23     
    173900   292.12568     -38205.812      0             -37723.404     -15531.806    
    173950   296.49586     -38204.443      0             -37714.819     -16287.723    
    174000   293.40245     -38223.309      0             -37738.794     -15774.502    
    174050   287.7324      -38181.142      0             -37705.99      -16532.81     
    174100   308.32014     -38242.996      0             -37733.846     -15106.522    
    174150   311.83511     -38218.984      0             -37704.029     -16216.374    
    174200   296.4823      -38194.057      0             -37704.455     -14937.232    
    174250   289.3008      -38194.889      0             -37717.147     -16873.464    
    174300   302.89853     -38220.032      0             -37719.835     -15361.266    
    174350   297.90104     -38215.945      0             -37724.001     -16871.273    
    174400   299.28686     -38209.217      0             -37714.984     -15446.752    
    174450   298.02093     -38188.899      0             -37696.756     -16465.745    
    174500   303.38115     -38233.972      0             -37732.977     -15699.112    
    174550   306.1529      -38209.717      0             -37704.146     -16578.608    
    174600   309.8518      -38217.527      0             -37705.848     -14705.497    
    174650   296.81657     -38202.912      0             -37712.759     -17104.285    
    174700   294.69294     -38202.2        0             -37715.553     -14864.862    
    174750   303.49843     -38233.175      0             -37731.987     -17587.305    
    174800   302.85507     -38210.919      0             -37710.793     -14964.752    
    174850   289.27535     -38168.785      0             -37691.084     -17723.357    
    174900   293.68057     -38203.001      0             -37718.026     -15220.284    
    174950   299.30946     -38210.93       0             -37716.659     -18404.295    
    175000   290.84968     -38195.498      0             -37715.198     -14929.002    
    175050   294.15026     -38200.067      0             -37714.317     -17527.796    
    175100   314.36696     -38230.032      0             -37710.896     -15320.946    
    175150   297.52115     -38192.431      0             -37701.114     -16793.9      
    175200   307.40068     -38204.789      0             -37697.157     -15274.382    
    175250   293.61822     -38169.723      0             -37684.851     -16500.912    
    175300   293.36453     -38170.08       0             -37685.627     -15196.688    
    175350   298.42719     -38202.786      0             -37709.973     -17030.561    
    175400   298.25635     -38187.722      0             -37695.191     -15750.886    
    175450   292.5481      -38165.342      0             -37682.237     -16102.812    
    175500   304.73681     -38204.358      0             -37701.125     -16486.411    
    175550   306.255       -38209.406      0             -37703.666     -16491.596    
    175600   305.84093     -38204.425      0             -37699.369     -16821.11     
    175650   282.26106     -38147.416      0             -37681.298     -16179.708    
    175700   285.85237     -38139.093      0             -37667.045     -17833.33     
    175750   296.53112     -38161.987      0             -37672.305     -16059.709    
    175800   298.09117     -38150.335      0             -37658.076     -18391.048    
    175850   301.47344     -38173.128      0             -37675.284     -14888.409    
    175900   313.7146      -38190.978      0             -37672.92      -17748.795    
    175950   304.98152     -38177.243      0             -37673.606     -14117.955    
    176000   292.64067     -38155.27       0             -37672.012     -18631.658    
    176050   295.95851     -38158.614      0             -37669.878     -13872.764    
    176100   307.5248      -38179.63       0             -37671.793     -17856.236    
    176150   302.84253     -38191.014      0             -37690.909     -14161.204    
    176200   300.25645     -38182.147      0             -37686.313     -19025.481    
    176250   301.38124     -38151.502      0             -37653.811     -13929.683    
    176300   302.43804     -38180.874      0             -37681.437     -17842.08     
    176350   296.20006     -38149.26       0             -37660.125     -14905.408    
    176400   310.64995     -38164.52       0             -37651.522     -17340.104    
    176450   308.77625     -38192.225      0             -37682.321     -15817.017    
    176500   308.99075     -38193.438      0             -37683.18      -17247.934    
    176550   304.99961     -38166.127      0             -37662.46      -15113.013    
    176600   302.70696     -38187.503      0             -37687.622     -16986.457    
    176650   303.32998     -38166.884      0             -37665.974     -15711.071    
    176700   303.62628     -38183.913      0             -37682.514     -15336.117    
    176750   295.88236     -38174.414      0             -37685.803     -15111.658    
    176800   299.39215     -38202.427      0             -37708.02      -15804.904    
    176850   307.05689     -38220.095      0             -37713.031     -16478.358    
    176900   299.12271     -38195.908      0             -37701.946     -15380.317    
    176950   304.71862     -38227.775      0             -37724.572     -16217.078    
    177000   301.63731     -38199.271      0             -37701.157     -14675.156    
    177050   300.88367     -38228.476      0             -37731.606     -16545.129    
    177100   306.24102     -38237.629      0             -37731.913     -15842.767    
    177150   289.5348      -38174.912      0             -37696.783     -16269.97     
    177200   296.04223     -38212.127      0             -37723.252     -16284.903    
    177250   316.39296     -38219.414      0             -37696.933     -16963.813    
    177300   306.09872     -38231.372      0             -37725.89      -15342.459    
    177350   301.51542     -38213.722      0             -37715.809     -16682.618    
    177400   299.51891     -38206.06       0             -37711.444     -15440.983    
    177450   278.43828     -38151.041      0             -37691.237     -16701.203    
    177500   306.84782     -38237.488      0             -37730.77      -16122.227    
    177550   311.32053     -38207.558      0             -37693.453     -16812.913    
    177600   299.13853     -38212.796      0             -37718.808     -16017.777    
    177650   301.63962     -38218.735      0             -37720.617     -17479.237    
    177700   304.60539     -38244.927      0             -37741.911     -16411.596    
    177750   306.37648     -38218.357      0             -37712.416     -17086.322    
    177800   313.45421     -38252.844      0             -37735.215     -16220.179    
    177850   279.37311     -38167.224      0             -37705.876     -16211.736    
    177900   299.37586     -38209.354      0             -37714.974     -16483.427    
    177950   282.35478     -38175.694      0             -37709.422     -15264.798    
    178000   299.53576     -38187.676      0             -37693.032     -16254.399    
    178050   308.39382     -38210.346      0             -37701.074     -15938.159    
    178100   307.6719      -38209.322      0             -37701.242     -16615.646    
    178150   305.91963     -38194.744      0             -37689.558     -15370.876    
    178200   302.05541     -38217.594      0             -37718.789     -16643.215    
    178250   311.78508     -38237.614      0             -37722.742     -15688.666    
    178300   309.90826     -38223.473      0             -37711.7       -17008.512    
    178350   302.08344     -38219.502      0             -37720.651     -15506.151    
    178400   312.20796     -38241.466      0             -37725.895     -17106.884    
    178450   296.26078     -38215.299      0             -37726.064     -15204.603    
    178500   303.16097     -38239.67       0             -37739.04      -16979.226    
    178550   299.56578     -38236.922      0             -37742.229     -15161.847    
    178600   305.71493     -38245.94       0             -37741.091     -17137.19     
    178650   292.90717     -38233.099      0             -37749.401     -16397.733    
    178700   295.63357     -38202.476      0             -37714.276     -15765.042    
    178750   306.61009     -38218.529      0             -37712.203     -16115.425    
    178800   300.77782     -38202.6        0             -37705.905     -15824.299    
    178850   297.27677     -38232.509      0             -37741.595     -16034.057    
    178900   296.84688     -38201.969      0             -37711.766     -15755.477    
    178950   301.90193     -38219.226      0             -37720.675     -16332.92     
    179000   288.33611     -38204.436      0             -37728.287     -16019.947    
    179050   289.87748     -38198.273      0             -37719.578     -16741.365    
    179100   288.53989     -38186.482      0             -37709.996     -15591.116    
    179150   292.24846     -38199.948      0             -37717.338     -16265.679    
    179200   301.278       -38209.671      0             -37712.15      -15345.932    
    179250   301.98312     -38199.358      0             -37700.672     -15784.241    
    179300   292.00539     -38174.733      0             -37692.525     -15555.571    
    179350   293.76235     -38169.338      0             -37684.228     -15134.515    
    179400   298.23892     -38197.543      0             -37705.041     -16848.167    
    179450   303.82987     -38199.705      0             -37697.97      -14597.261    
    179500   303.36529     -38207.636      0             -37706.668     -16812.496    
    179550   307.79769     -38207.192      0             -37698.905     -14727.034    
    179600   295.45075     -38184.241      0             -37696.343     -16152.544    
    179650   296.3897      -38171.061      0             -37681.612     -15649.619    
    179700   302.9595      -38164.545      0             -37664.247     -16102.933    
    179750   304.64707     -38199.474      0             -37696.389     -14914.256    
    179800   301.27186     -38184.463      0             -37686.952     -16250.161    
    179850   295.0365      -38177.654      0             -37690.44      -14861.412    
    179900   301.53181     -38184.113      0             -37686.173     -16481.39     
    179950   291.69577     -38174.001      0             -37692.304     -15400.489    
    180000   297.0647      -38191.948      0             -37701.384     -16839.118    
    180050   300.37369     -38173.739      0             -37677.712     -15381.738    
    180100   304.70828     -38183.289      0             -37680.103     -15936.012    
    180150   298.73716     -38183.345      0             -37690.02      -15440.885    
    180200   304.143       -38221.08       0             -37718.828     -16501.822    
    180250   290.46579     -38156.552      0             -37676.886     -15547.378    
    180300   295.71554     -38163.811      0             -37675.476     -16262.344    
    180350   286.58441     -38180.111      0             -37706.854     -16427.449    
    180400   301.7502      -38178.918      0             -37680.617     -17407.851    
    180450   300.27847     -38180.665      0             -37684.794     -16320.499    
    180500   299.78532     -38182.83       0             -37687.774     -16464.189    
    180550   304.704       -38194.395      0             -37691.216     -16613.389    
    180600   302.47183     -38207.792      0             -37708.3       -15675.941    
    180650   302.32237     -38185.351      0             -37686.105     -17204.566    
    180700   296.1481      -38188.021      0             -37698.972     -15741.05     
    180750   298.0631      -38177.916      0             -37685.704     -17458.376    
    180800   295.52657     -38174.255      0             -37686.232     -15757.995    
    180850   298.11676     -38195.096      0             -37702.795     -17307.3      
    180900   291.02287     -38180.26       0             -37699.674     -15353.569    
    180950   289.67767     -38149.189      0             -37670.824     -17050.152    
    181000   298.97024     -38179.384      0             -37685.673     -15954.623    
    181050   301.4613      -38171.348      0             -37673.524     -17811.803    
    181100   299.08556     -38170.678      0             -37676.778     -15842.58     
    181150   293.33571     -38141.515      0             -37657.109     -16928.051    
    181200   298.48901     -38152.031      0             -37659.116     -15599.964    
    181250   295.76979     -38173.895      0             -37685.47      -17782.561    
    181300   297.218       -38156.646      0             -37665.83      -15082.958    
    181350   308.75595     -38202.357      0             -37692.488     -16500.44     
    181400   293.73072     -38191.196      0             -37706.138     -15703.282    
    181450   302.95157     -38194.872      0             -37694.587     -16066.45     
    181500   296.06844     -38190.274      0             -37701.356     -15431.211    
    181550   301.0497      -38193.378      0             -37696.234     -15998.094    
    181600   305.15922     -38193.774      0             -37689.844     -16126.314    
    181650   294.90613     -38179.438      0             -37692.44      -16309.853    
    181700   296.44923     -38189.21       0             -37699.663     -17282.647    
    181750   297.685       -38208.83       0             -37717.242     -17456.239    
    181800   283.72584     -38167.042      0             -37698.506     -16184.515    
    181850   296.21893     -38172.973      0             -37683.807     -16174.394    
    181900   279.2109      -38154.994      0             -37693.914     -15825.213    
    181950   308.42936     -38153.266      0             -37643.936     -16383.661    
    182000   307.07143     -38186.62       0             -37679.532     -16374.686    
    182050   299.386       -38189.766      0             -37695.369     -16508.095    
    182100   300.81868     -38150.979      0             -37654.216     -15512.162    
    182150   300.99783     -38158.488      0             -37661.43      -17272.428    
    182200   291.37658     -38159.751      0             -37678.58      -15809.392    
    182250   308.96342     -38184.805      0             -37674.593     -17339.761    
    182300   301.69124     -38172.007      0             -37673.804     -15603.344    
    182350   305.54441     -38189.789      0             -37685.223     -16828.527    
    182400   298.50723     -38155.848      0             -37662.903     -15362.466    
    182450   313.28702     -38206.498      0             -37689.146     -16093.358    
    182500   290.94351     -38186.515      0             -37706.06      -15480.641    
    182550   313.68631     -38219.695      0             -37701.683     -16794.007    
    182600   309.73581     -38200.121      0             -37688.632     -16201.865    
    182650   292.74391     -38186.663      0             -37703.235     -16331.153    
    182700   319.1777      -38254.758      0             -37727.678     -16137.254    
    182750   299.31792     -38238.101      0             -37743.817     -15721.155    
    182800   296.69441     -38218.344      0             -37728.392     -16131.905    
    182850   315.96348     -38229.764      0             -37707.992     -15371.788    
    182900   314.4061      -38224.284      0             -37705.084     -16581.325    
    182950   292.56506     -38225.872      0             -37742.739     -14999.952    
    183000   294.52947     -38209.576      0             -37723.2       -16583.297    
    183050   303.09809     -38227.934      0             -37727.407     -15041.058    
    183100   284.32167     -38186.941      0             -37717.421     -16209.626    
    183150   296.33633     -38179.552      0             -37690.191     -14571.347    
    183200   303.6031      -38229.643      0             -37728.282     -16838.663    
    183250   302.87898     -38226.26       0             -37726.095     -14951.197    
    183300   287.03863     -38199.259      0             -37725.252     -17028.7      
    183350   295.99378     -38186.93       0             -37698.135     -15296.656    
    183400   292.12445     -38195.527      0             -37713.122     -16920.624    
    183450   300.85009     -38202.841      0             -37706.027     -15963.238    
    183500   302.67907     -38214.092      0             -37714.257     -16751.492    
    183550   316.82994     -38228.986      0             -37705.783     -16307.277    
    183600   304.91475     -38215.799      0             -37712.272     -16524.96     
    183650   290.97552     -38214.481      0             -37733.973     -16327.214    
    183700   304.94475     -38215.13       0             -37711.553     -16355.069    
    183750   289.08359     -38205.552      0             -37728.168     -15827.319    
    183800   294.97354     -38204.795      0             -37717.685     -16711.324    
    183850   290.563       -38199.484      0             -37719.657     -16283.536    
    183900   298.36848     -38181.183      0             -37688.466     -17373.256    
    183950   301.81588     -38183.799      0             -37685.39      -16351.605    
    184000   287.59971     -38167.099      0             -37692.166     -16780.264    
    184050   299.05424     -38184.081      0             -37690.232     -15923.831    
    184100   303.90973     -38191.745      0             -37689.878     -17721        
    184150   293.34167     -38171.484      0             -37687.068     -15890.889    
    184200   296.93492     -38174.557      0             -37684.208     -17412.512    
    184250   303.31434     -38150.115      0             -37649.232     -15319.379    
    184300   297.12654     -38162.206      0             -37671.541     -17884.638    
    184350   294.05991     -38162.614      0             -37677.012     -15768.881    
    184400   293.29708     -38168.186      0             -37683.845     -17570.339    
    184450   295.08108     -38158.75       0             -37671.462     -15841.039    
    184500   311.02897     -38173.853      0             -37660.23      -16527.508    
    184550   293.03148     -38163.345      0             -37679.442     -15665.722    
    184600   298.49894     -38172.017      0             -37679.085     -16412.594    
    184650   298.52619     -38170.702      0             -37677.725     -16338.675    
    184700   305.69673     -38176.456      0             -37671.638     -17028.739    
    184750   309.28713     -38218.78       0             -37708.033     -17207.631    
    184800   306.56594     -38175.584      0             -37669.331     -16710.998    
    184850   288.92715     -38128.287      0             -37651.162     -16023.855    
    184900   293.08851     -38160.773      0             -37676.776     -15914.123    
    184950   293.86695     -38157.466      0             -37672.184     -16227.379    
    185000   291.44927     -38159.929      0             -37678.638     -16035.695    
    185050   304.14878     -38161.195      0             -37658.933     -16508.559    
    185100   300.27677     -38141.914      0             -37646.047     -16387.194    
    185150   307.76205     -38183.282      0             -37675.054     -16529.088    
    185200   302.2833      -38155.33       0             -37656.149     -15943.708    
    185250   291.10467     -38152.834      0             -37672.113     -16320.249    
    185300   298.50209     -38163.14       0             -37670.203     -16354.119    
    185350   293.89702     -38145.998      0             -37660.666     -16107.293    
    185400   306.05154     -38182.743      0             -37677.339     -16707.157    
    185450   308.86593     -38180.638      0             -37670.587     -16085.374    
    185500   325.10046     -38234.42       0             -37697.559     -16576.838    
    185550   298.65151     -38171.424      0             -37678.24      -14636.599    
    185600   307.08468     -38191.253      0             -37684.143     -15730.162    
    185650   288.24689     -38160.108      0             -37684.106     -14914.912    
    185700   294.34864     -38127.278      0             -37641.2       -16310.565    
    185750   305.67144     -38186.833      0             -37682.056     -14924.729    
    185800   314.95351     -38208.573      0             -37688.469     -16291.128    
    185850   310.93654     -38194.062      0             -37680.591     -15311.659    
    185900   299.30243     -38182.312      0             -37688.053     -16499.123    
    185950   304.10889     -38208.612      0             -37706.417     -16055.75     
    186000   304.0975      -38171.475      0             -37669.298     -16136.704    
    186050   299.52227     -38199.304      0             -37704.682     -16536.375    
    186100   288.73505     -38165.483      0             -37688.675     -16069.936    
    186150   312.73115     -38227.389      0             -37710.954     -15906.783    
    186200   297.63        -38191.684      0             -37700.187     -15685.55     
    186250   316.45375     -38256.46       0             -37733.878     -15090.035    
    186300   296.08612     -38203.36       0             -37714.413     -16876.053    
    186350   302.23634     -38203.173      0             -37704.069     -15219.692    
    186400   299.66748     -38202.123      0             -37707.261     -16717.961    
    186450   306.08625     -38233.496      0             -37728.035     -15904.117    
    186500   286.89621     -38190.044      0             -37716.273     -16149.803    
    186550   315.59359     -38239.429      0             -37718.267     -15877.39     
    186600   291.01986     -38173.01       0             -37692.429     -16500.201    
    186650   294.06417     -38189.709      0             -37704.1       -16102.47     
    186700   294.37834     -38182.714      0             -37696.587     -16039.13     
    186750   301.09306     -38208.229      0             -37711.013     -16429.509    
    186800   309.87063     -38217.705      0             -37705.994     -16177.216    
    186850   297.23398     -38196.158      0             -37705.315     -16267.606    
    186900   304.68744     -38211.287      0             -37708.136     -15479.212    
    186950   318.69285     -38241.114      0             -37714.834     -16888.39     
    187000   306.7925      -38238.283      0             -37731.656     -15745.908    
    187050   292.52388     -38208.019      0             -37724.954     -17239.774    
    187100   292.9575      -38194.582      0             -37710.802     -15027.625    
    187150   305.99742     -38223.594      0             -37718.28      -17698.238    
    187200   296.61003     -38207.025      0             -37717.213     -14618.834    
    187250   311.16434     -38249.849      0             -37736.002     -18167.395    
    187300   305.21976     -38223.803      0             -37719.773     -14605.336    
    187350   310.31067     -38233.787      0             -37721.349     -18174.452    
    187400   291.09409     -38198.429      0             -37717.726     -13333.52     
    187450   299.19386     -38240.041      0             -37745.961     -18133.859    
    187500   304.82039     -38229.703      0             -37726.332     -13486.481    
    187550   303.35288     -38218.003      0             -37717.056     -18807.562    
    187600   298.83944     -38220.024      0             -37726.53      -14256.468    
    187650   308.43497     -38228.302      0             -37718.963     -17694.276    
    187700   293.09895     -38211.965      0             -37727.95      -14965.864    
    187750   295.47869     -38214.342      0             -37726.397     -18008.984    
    187800   289.96769     -38208.189      0             -37729.346     -15464.451    
    187850   298.04067     -38223.81       0             -37731.635     -16355.194    
    187900   293.47868     -38209.19       0             -37724.549     -15266.808    
    187950   306.01731     -38230.885      0             -37725.538     -16571.79     
    188000   318.84915     -38254.31       0             -37727.772     -16892.304    
    188050   309.79059     -38207.371      0             -37695.792     -16451.123    
    188100   297.69898     -38200.286      0             -37708.675     -16316.498    
    188150   305.01116     -38243.133      0             -37739.447     -15818.474    
    188200   290.33319     -38190.073      0             -37710.626     -16276.943    
    188250   298.06243     -38202.095      0             -37709.884     -16041.33     
    188300   300.92142     -38206.479      0             -37709.547     -16994.367    
    188350   297.01975     -38181.325      0             -37690.836     -15483.938    
    188400   300.77335     -38192.925      0             -37696.237     -17580.251    
    188450   295.9         -38195.445      0             -37706.805     -16130.785    
    188500   313.10487     -38197.443      0             -37680.392     -17132.318    
    188550   301.75435     -38188.928      0             -37690.621     -16090.947    
    188600   300.53917     -38192.183      0             -37695.882     -17319.066    
    188650   286.13652     -38141.866      0             -37669.349     -15409.015    
    188700   299.06482     -38198.906      0             -37705.04      -16619.274    
    188750   297.69059     -38191.166      0             -37699.57      -15930.299    
    188800   304.226       -38209.79       0             -37707.4       -15565.971    
    188850   308.15575     -38202.091      0             -37693.213     -16883.985    
    188900   298.69943     -38175.956      0             -37682.693     -16854.824    
    188950   289.99255     -38185.598      0             -37706.713     -16675.035    
    189000   299.59835     -38176.178      0             -37681.431     -16440.133    
    189050   293.90139     -38192.863      0             -37707.524     -16822.901    
    189100   294.9199      -38205.27       0             -37718.249     -16345.129    
    189150   295.92276     -38184.76       0             -37696.082     -16590.92     
    189200   307.81131     -38209.959      0             -37701.649     -15752.04     
    189250   306.72947     -38195.084      0             -37688.561     -16307.55     
    189300   296.78833     -38196.798      0             -37706.691     -15534.365    
    189350   292.28584     -38191.706      0             -37709.034     -16414.867    
    189400   298.82017     -38212.279      0             -37718.817     -15438.415    
    189450   304.56042     -38222.856      0             -37719.914     -16613.697    
    189500   299.29538     -38207.905      0             -37713.658     -15318.169    
    189550   299.61876     -38194.186      0             -37699.405     -16541.633    
    189600   294.88706     -38208.83       0             -37721.862     -15599.157    
    189650   302.78631     -38219.747      0             -37719.735     -16135.912    
    189700   304.83658     -38224.719      0             -37721.321     -15695.75     
    189750   306.29776     -38262.009      0             -37756.198     -16177.844    
    189800   305.96499     -38257.871      0             -37752.61      -15799.112    
    189850   305.07489     -38248.878      0             -37745.087     -15740.17     
    189900   300.85004     -38245.657      0             -37748.843     -15803.546    
    189950   293.00708     -38221.525      0             -37737.662     -15980.095    
    190000   291.66258     -38229.85       0             -37748.207     -15400.895    
    190050   306.19012     -38236.436      0             -37730.803     -14864.498    
    190100   310.72885     -38250.608      0             -37737.48      -16768.631    
    190150   310.12438     -38253.529      0             -37741.399     -15484.016    
    190200   301.36103     -38240.012      0             -37742.354     -17007.645    
    190250   286.45867     -38200.158      0             -37727.109     -15643.418    
    190300   297.78603     -38246.034      0             -37754.279     -17145.716    
    190350   294.3245      -38241.259      0             -37755.221     -16239.63     
    190400   299.71135     -38221.32       0             -37726.386     -15498.475    
    190450   296.99033     -38240.213      0             -37749.773     -15324.351    
    190500   298.20247     -38236.642      0             -37744.2       -15035.164    
    190550   310.33979     -38269.867      0             -37757.382     -15976.78     
    190600   290.47145     -38205.706      0             -37726.03      -14983.501    
    190650   302.06341     -38233.279      0             -37734.461     -15606.215    
    190700   303.87915     -38241.359      0             -37739.542     -15623.244    
    190750   315.59659     -38260.69       0             -37739.523     -15108.574    
    190800   296.65796     -38228.649      0             -37738.757     -16220.968    
    190850   314.00291     -38295.514      0             -37776.98      -15903.008    
    190900   303.72632     -38263.158      0             -37761.593     -16520.773    
    190950   301.36033     -38240.99       0             -37743.332     -16390.771    
    191000   309.11061     -38265.153      0             -37754.697     -16409.443    
    191050   305.40601     -38257.731      0             -37753.393     -15949.408    
    191100   312.98937     -38266.229      0             -37749.368     -16319.618    
    191150   301.93773     -38251.449      0             -37752.838     -15667.692    
    191200   306.06742     -38287.633      0             -37782.203     -16460.522    
    191250   294.45895     -38261.095      0             -37774.834     -15783.247    
    191300   289.23765     -38258.609      0             -37780.971     -16257.106    
    191350   296.57793     -38259.155      0             -37769.395     -15540.673    
    191400   295.41445     -38243.524      0             -37755.686     -15575.452    
    191450   308.19402     -38268.881      0             -37759.939     -15697.854    
    191500   297.66861     -38243.537      0             -37751.977     -16166.898    
    191550   305.60585     -38272.628      0             -37767.96      -16632.509    
    191600   294.45366     -38261.165      0             -37774.913     -15857.151    
    191650   297.14387     -38266.702      0             -37776.008     -16656.176    
    191700   300.71275     -38260.923      0             -37764.335     -14463.139    
    191750   299.29789     -38237.078      0             -37742.827     -16690.02     
    191800   299.19755     -38247.027      0             -37752.942     -14813.668    
    191850   295.22021     -38210.681      0             -37723.163     -16449.897    
    191900   308.47202     -38262.075      0             -37752.674     -15017.904    
    191950   308.50395     -38260.951      0             -37751.497     -17308.39     
    192000   303.19482     -38257.604      0             -37756.918     -14547.243    
    192050   303.16107     -38254.14       0             -37753.509     -17827.551    
    192100   297.7553      -38249.241      0             -37757.538     -14836.253    
    192150   291.25514     -38249.277      0             -37768.307     -18856.32     
    192200   298.96542     -38264.375      0             -37770.673     -14673.617    
    192250   292.70274     -38211.679      0             -37728.319     -18386.837    
    192300   290.31943     -38214.452      0             -37735.028     -14462.26     
    192350   295.60437     -38198.831      0             -37710.679     -17962.193    
    192400   293.59341     -38205.789      0             -37720.958     -13985.332    
    192450   306.14461     -38244.99       0             -37739.433     -18105.684    
    192500   299.25389     -38213.458      0             -37719.28      -13815.797    
    192550   294.17041     -38211.016      0             -37725.232     -17682.957    
    192600   304.89319     -38239.502      0             -37736.011     -15867.978    
    192650   304.67953     -38250.367      0             -37747.229     -16299.733    
    192700   300.30567     -38219.735      0             -37723.82      -15238.5      
    192750   314.55086     -38246.472      0             -37727.033     -16742.701    
    192800   314.40559     -38279.195      0             -37759.996     -15928.198    
    192850   301.0431      -38260.466      0             -37763.332     -16659.877    
    192900   289.39151     -38228.03       0             -37750.138     -15661.646    
    192950   310.44334     -38260.482      0             -37747.826     -16309.694    
    193000   300.55395     -38247.237      0             -37750.911     -16745.55     
    193050   295.20552     -38247.525      0             -37760.032     -15687.666    
    193100   316.6391      -38276.699      0             -37753.811     -16219.706    
    193150   292.71123     -38270.593      0             -37787.219     -15854.508    
    193200   303.63228     -38292.708      0             -37791.299     -16456.225    
    193250   302.61258     -38255.02       0             -37755.295     -15558.212    
    193300   307.43816     -38261.348      0             -37753.654     -16366.944    
    193350   302.9092      -38267.432      0             -37767.217     -15477.29     
    193400   294.8586      -38258.447      0             -37771.527     -16376.773    
    193450   279.76193     -38233.164      0             -37771.174     -15097.023    
    193500   291.14401     -38251.031      0             -37770.245     -16654.461    
    193550   299.9486      -38249.96       0             -37754.634     -15051.254    
    193600   312.56101     -38266.191      0             -37750.038     -16632.287    
    193650   289.44838     -38257.387      0             -37779.4       -15509.74     
    193700   295.83853     -38225.932      0             -37737.393     -17144.267    
    193750   297.0915      -38262.43       0             -37771.823     -15823.56     
    193800   282.49376     -38208.034      0             -37741.533     -16814.009    
    193850   312.75216     -38270.459      0             -37753.989     -14981.932    
    193900   300.56393     -38250.489      0             -37754.147     -17177.784    
    193950   310.91259     -38269.92       0             -37756.489     -14776.967    
    194000   295.58707     -38244.877      0             -37756.754     -16842.817    
    194050   288.26865     -38259.891      0             -37783.853     -14530.346    
    194100   306.11084     -38263.666      0             -37758.164     -17620.001    
    194150   294.20813     -38253.269      0             -37767.423     -14753.043    
    194200   304.81764     -38253.584      0             -37750.218     -17158.018    
    194250   295.05183     -38234.571      0             -37747.332     -15691.164    
    194300   301.4023      -38253.479      0             -37755.753     -16961.469    
    194350   302.31303     -38252.73       0             -37753.5       -17459.019    
    194400   286.05162     -38219.735      0             -37747.358     -16056.777    
    194450   286.93609     -38210.493      0             -37736.656     -17085.083    
    194500   303.36923     -38213.914      0             -37712.94      -15111.977    
    194550   296.44745     -38251.639      0             -37762.095     -17819.056    
    194600   303.36667     -38225.982      0             -37725.012     -15610.204    
    194650   294.27278     -38231.081      0             -37745.128     -17765.022    
    194700   288.99149     -38193.941      0             -37716.709     -14861.666    
    194750   296.39317     -38199.699      0             -37710.245     -17786.897    
    194800   290.89819     -38210.311      0             -37729.931     -15127.613    
    194850   303.47227     -38214.129      0             -37712.984     -16621.775    
    194900   296.86203     -38174.523      0             -37684.295     -15591.235    
    194950   286.8         -38189.865      0             -37716.253     -15969.683    
    195000   304.37026     -38218.798      0             -37716.17      -15315.91     
    195050   305.58297     -38229.194      0             -37724.564     -16017.838    
    195100   295.92779     -38214.486      0             -37725.8       -16257.148    
    195150   304.69708     -38198.306      0             -37695.139     -16111.13     
    195200   305.61926     -38230.001      0             -37725.311     -16915.696    
    195250   293.99788     -38226.227      0             -37740.728     -16688.391    
    195300   301.6096      -38217.772      0             -37719.703     -16864.227    
    195350   293.80323     -38216.521      0             -37731.343     -15906.245    
    195400   295.31988     -38218.864      0             -37731.182     -17439.185    
    195450   301.62181     -38214.719      0             -37716.63      -15445.948    
    195500   298.91077     -38212.196      0             -37718.584     -17053.099    
    195550   297.82369     -38210.038      0             -37718.221     -15835.113    
    195600   302.65916     -38215.451      0             -37715.649     -17514.881    
    195650   313.12262     -38242.911      0             -37725.83      -16414.447    
    195700   296.43229     -38205.427      0             -37715.908     -15748.529    
    195750   298.31435     -38210.213      0             -37717.586     -15917.531    
    195800   297.48095     -38194.055      0             -37702.804     -15751.241    
    195850   307.14257     -38232.787      0             -37725.582     -16560.121    
    195900   291.3627      -38201.577      0             -37720.43      -16421.507    
    195950   298.52378     -38187.066      0             -37694.094     -16052.695    
    196000   302.80858     -38236.342      0             -37736.293     -16919.739    
    196050   289.53999     -38184.558      0             -37706.42      -16879.667    
    196100   294.43363     -38194.354      0             -37708.135     -16292.333    
    196150   292.64915     -38195.696      0             -37712.424     -16449.914    
    196200   287.75799     -38205.518      0             -37730.323     -16516.188    
    196250   284.89854     -38190.093      0             -37719.62      -16194.464    
    196300   307.51575     -38213.489      0             -37705.667     -16250.126    
    196350   303.65075     -38195.886      0             -37694.446     -17066.159    
    196400   309.83549     -38188.953      0             -37677.3       -16103.413    
    196450   308.15865     -38205.537      0             -37696.653     -16626.785    
    196500   310.24532     -38211.141      0             -37698.812     -16473.38     
    196550   308.48914     -38208.9        0             -37699.471     -16105.81     
    196600   293.25266     -38188.565      0             -37704.297     -16062.724    
    196650   301.60943     -38197.265      0             -37699.196     -16399.401    
    196700   306.64045     -38189.471      0             -37683.095     -15494.008    
    196750   308.00423     -38219.078      0             -37710.45      -16641.818    
    196800   308.93414     -38227.034      0             -37716.87      -15437.533    
    196850   293.57177     -38227.545      0             -37742.75      -16052.605    
    196900   318.44545     -38237.496      0             -37711.625     -15181.564    
    196950   296.40206     -38218.186      0             -37728.717     -15709.076    
    197000   292.5641      -38230.259      0             -37747.128     -15447.135    
    197050   301.18847     -38219.8        0             -37722.427     -15500.227    
    197100   306.06755     -38251.497      0             -37746.067     -15052.044    
    197150   302.66791     -38252.838      0             -37753.021     -15692.274    
    197200   297.19122     -38223.767      0             -37732.995     -14782.277    
    197250   290.79488     -38207.093      0             -37726.883     -16331.873    
    197300   303.41105     -38214.669      0             -37713.626     -14914.724    
    197350   285.81372     -38210.718      0             -37738.734     -16063.636    
    197400   288.39149     -38202.844      0             -37726.604     -15495.686    
    197450   295.21231     -38208.296      0             -37720.791     -16778.44     
    197500   294.93127     -38183.722      0             -37696.682     -15118.64     
    197550   298.04048     -38190.465      0             -37698.29      -16235.974    
    197600   292.40465     -38179.559      0             -37696.692     -15258.54     
    197650   296.08188     -38201.996      0             -37713.056     -16833.493    
    197700   292.70741     -38186.094      0             -37702.726     -15463.757    
    197750   297.34536     -38178.289      0             -37687.262     -17301.057    
    197800   295.62652     -38185.713      0             -37697.525     -16298.862    
    197850   302.73833     -38190.284      0             -37690.351     -16890.786    
    197900   300.33121     -38215.586      0             -37719.629     -14888.03     
    197950   307.57075     -38185.811      0             -37677.898     -16979.527    
    198000   297.65839     -38167.464      0             -37675.92      -15161.679    
    198050   299.3456      -38212.082      0             -37717.752     -17529.759    
    198100   303.82515     -38184.112      0             -37682.384     -15172.207    
    198150   304.25222     -38202.245      0             -37699.812     -17118.348    
    198200   290.93742     -38194.652      0             -37714.207     -15688.876    
    198250   291.3146      -38169.476      0             -37688.408     -16724.65     
    198300   298.3805      -38172.006      0             -37679.269     -15909.442    
    198350   311.50363     -38207.968      0             -37693.561     -17388.2      
    198400   303.06785     -38190.34       0             -37689.863     -15838.056    
    198450   303.28627     -38189.052      0             -37688.215     -16544.67     
    198500   301.40819     -38188.908      0             -37691.172     -16825.331    
    198550   295.99827     -38173.491      0             -37684.689     -15966.221    
    198600   309.14159     -38206.713      0             -37696.206     -16913.737    
    198650   321.5872      -38210.489      0             -37679.43      -15897.361    
    198700   307.11817     -38217.491      0             -37710.326     -17143.267    
    198750   301.64752     -38223.431      0             -37725.3       -15269.299    
    198800   309.6621      -38208.973      0             -37697.606     -17061.414    
    198850   303.85686     -38231.975      0             -37730.195     -14883.973    
    198900   293.18068     -38220.692      0             -37736.542     -17375.036    
    198950   292.87222     -38210.601      0             -37726.961     -14864.91     
    199000   294.82967     -38216.11       0             -37729.238     -17047.444    
    199050   301.40441     -38214.077      0             -37716.348     -14192.691    
    199100   317.45084     -38233.5        0             -37709.272     -17369.748    
    199150   308.82359     -38249.39       0             -37739.409     -14944.573    
    199200   297.68315     -38208.453      0             -37716.868     -17948.146    
    199250   302.28901     -38235.845      0             -37736.655     -14378.736    
    199300   292.33488     -38200.194      0             -37717.441     -17515.634    
    199350   306.325       -38225.707      0             -37719.851     -13437.973    
    199400   301.46674     -38220.598      0             -37722.766     -17161.227    
    199450   317.73132     -38256.912      0             -37732.221     -13866.571    
    199500   294.11359     -38205.616      0             -37719.926     -18649.213    
    199550   296.18847     -38215.51       0             -37726.394     -13900.112    
    199600   286.2184      -38176.318      0             -37703.666     -18021.205    
    199650   295.19612     -38203.709      0             -37716.232     -14034.239    
    199700   298.87042     -38195.643      0             -37702.098     -17100.837    
    199750   311.26705     -38213.57       0             -37699.553     -14184.437    
    199800   295.7245      -38204.982      0             -37716.632     -17561.361    
    199850   288.30435     -38202.095      0             -37725.999     -14364.622    
    199900   297.0743      -38180.131      0             -37689.552     -17780.621    
    199950   302.9886      -38220.093      0             -37719.747     -14577.918    
    200000   290.5736      -38179.959      0             -37700.115     -16426.075    
Loop time of 784.224 on 4 procs for 200000 steps with 1665 atoms

Performance: 22.035 ns/day, 1.089 hours/ns, 255.029 timesteps/s, 424.623 katom-step/s
15.4% CPU use with 4 MPI tasks x 1 OpenMP threads

MPI task timing breakdown:
Section |  min time  |  avg time  |  max time  |%varavg| %total
---------------------------------------------------------------
Pair    | 412.31     | 519.5      | 626.89     | 414.7 | 66.24
Bond    | 0.079955   | 0.089048   | 0.093806   |   1.8 |  0.01
Kspace  | 85.634     | 192.98     | 300.12     | 680.3 | 24.61
Neigh   | 33.687     | 33.73      | 33.772     |   0.7 |  4.30
Comm    | 18.696     | 19.127     | 19.532     |   8.8 |  2.44
Output  | 0.29579    | 0.32465    | 0.36182    |   4.3 |  0.04
Modify  | 16.635     | 17.001     | 17.376     |   8.5 |  2.17
Other   |            | 1.48       |            |       |  0.19

Nlocal:         416.25 ave         425 max         411 min
Histogram: 2 0 0 0 1 0 0 0 0 1
Nghost:        5833.75 ave        5870 max        5794 min
Histogram: 2 0 0 0 0 0 0 0 0 2
Neighs:         203067 ave      244211 max      161079 min
Histogram: 2 0 0 0 0 0 0 0 0 2

Total # of neighbors = 812269
Ave neighs/atom = 487.84925
Ave special neighs/atom = 1.445045
Neighbor list builds = 7976
Dangerous builds = 0
write_data system.data nocoeff
System init for write_data ...
PPPM initialization ...
  extracting TIP4P info from pair style
  using 12-bit tables for long-range coulomb (src/kspace.cpp:342)
  G vector (1/distance) = 0.22477066
  grid = 12 12 40
  stencil order = 5
  estimated absolute RMS force accuracy = 0.023142321
  estimated relative force accuracy = 6.9692414e-05
  using double precision FFTW3
  3d grid and FFT values/proc = 8892 2376
Generated 9 of 10 mixed pair_coeff terms from geometric mixing rule
Total wall time: 0:13:04
